POSCAR file written by OVITO            
   1.00000000000000     
    29.1434105662078018    0.0000240333900451    0.0000281198499406
    -0.0000000000003852   29.1434096227701360   -0.0000103503845915
     0.0000000000002590    0.0000000000000884   29.1434105655638831
   Ty
   900
Direct
  0.9796411110938916  0.8519450700515414  0.8196081328735557
  0.9529976815773766  0.8886431279717187  0.8115371179534171
  0.9134935277605761  0.8991256812431387  0.8441101196438126
  0.9569873762728812  0.7778872223996468  0.8804546661170169
  0.9560927359561183  0.8330322129671398  0.8653546118727750
  0.9067503988137121  0.8605699184494571  0.8771511746265299
  0.8754971118511022  0.8513334315923961  0.9060219273256515
  0.1462573401756770  0.8991798429692003  0.8137004186235648
  0.1794901799495011  0.9242679597367567  0.8298451039872362
  0.0946494755761045  0.8436489179153771  0.8576750766303974
  0.1086927733274315  0.8885099060689502  0.8584407878215214
  0.1835988211956061  0.9235573883156472  0.8738224109873758
  0.1349609300787652  0.8940220594236108  0.8977360617600119
  0.1400448519506880  0.8658669674673907  0.9355546082544193
  0.8498996098320191  0.0508684692843080  0.9038197050933753
  0.9478060497160723  0.0797187723841781  0.8711965708508311
  0.9721272416154421  0.1118071643204650  0.8572040727497343
  0.8823786437551819  0.0843233721799489  0.9304535035988695
  0.9268146178681140  0.0963675784457808  0.9185135404300652
  0.8626612536512572  0.1071119390353503  0.9689753222407093
  0.9476347386657968  0.1430175903724917  0.9414479562498027
  0.9179417563774719  0.1728075552191951  0.9705899225077437
  0.8698533892708711  0.1485546498852917  0.9915945407490231
  0.1578106028910910  0.0346903303048101  0.8472712998826617
  0.0932048718185963  0.1065095872071554  0.8138549062450519
  0.0592022562553111  0.1473554857831092  0.8138557797214582
  0.1089088354238365  0.1048654916312251  0.8830972264202784
  0.1451445914245843  0.0709269884772647  0.8772962328289640
  0.0905226013867532  0.1445161466780138  0.8988721255100167
  0.1260538874454718  0.1539459377788106  0.9411939975069415
  0.8543732175174333  0.8764413818428087  0.0475365989802003
  0.8119125636902035  0.8865025382310754  0.0687635349194607
  0.8881235801449768  0.8958797370769296  0.0780193295355037
  0.7985234820557934  0.9247068476234175  0.1051008076337210
  0.8734699696244071  0.9301307490332222  0.1190567710026378
  0.8307795580606787  0.9438972201431872  0.1239627711284116
  0.9256190566688121  0.8668856451221366  0.1409994020759831
  0.8943333324149718  0.9127027708903721  0.1576293022106117
  0.8171226485417286  0.9570195763474858  0.1739387143517392
  0.1787493133742127  0.8268043117989287  0.0492426647531175
  0.1313281970008271  0.8399479382394134  0.0498059818746990
  0.1539042203023472  0.9185477043757316  0.0780091844156503
  0.1328329667274739  0.8804713333387642  0.0765349077105962
  0.1719398050783975  0.9340130880012187  0.1360118232959680
  0.0908051772260855  0.8806057192525556  0.1174567162233219
  0.0760950745460969  0.8354134084789619  0.1079341330164462
  0.8143582931395380  0.0990892423848715  0.0872349505489751
  0.8622399595046787  0.0859877492118043  0.1080878945964146
  0.9132083977134643  0.1151234977712118  0.1166581312731720
  0.9004102754199855  0.1555859978304563  0.1114956542255509
  0.8517622225658160  0.0515718510896821  0.1438393595836127
  0.8918746349319653  0.0591457994480358  0.1737446622127318
  0.9238809009117831  0.0857693915999745  0.1574559341105633
  0.1139163909351034  0.1047675182761250  0.0929823321680896
  0.1100827438746021  0.0883528866984005  0.1380430470862689
  0.0543173283652443  0.1536591299131282  0.1665404474834694
  0.0747771545384930  0.1062335011716834  0.1724155840012237
  0.1408144360233469  0.0577456849610321  0.1544104344100057
  0.1297867855040324  0.0626940929766198  0.2042055126123435
  0.0996840040145510  0.0998666167879097  0.2187749197041161
  0.9610843736308448  0.2187251519069539  0.8376438173904884
  0.9277057253622747  0.2542223268017065  0.8301378528962152
  0.8959613461381867  0.2697764340699259  0.8762913342131790
  0.9663161792421040  0.1602980362517308  0.9025729711593549
  0.9441871120366282  0.1975116381987874  0.8865143796341273
  0.9146203772019023  0.2350268553017568  0.9063071145040592
  0.8981609317868726  0.2178666447290064  0.9568164908616031
  0.1071598404282000  0.2361648016120025  0.8279444085152273
  0.1925600872103134  0.2813831312815397  0.8424081843739961
  0.0769054407589300  0.1859757764175738  0.8884635560897174
  0.1085879841405865  0.2190348729949183  0.8696612743056206
  0.1854396048813144  0.2649584794449464  0.8829116013414814
  0.1404483308461044  0.2286667381930037  0.9124980890360278
  0.1557824376036558  0.1925798417986274  0.9368087291097119
  0.6244954937610310  0.8835002368829266  0.5275384563203227
  0.5980503911081363  0.9284680887786715  0.5265258947534781
  0.5776968691169078  0.9208656814303063  0.5695547551354566
  0.6402348128631423  0.8160209809218006  0.5672069133584061
  0.6310087005813398  0.8671380266003040  0.5758638119990762
  0.5863328627053465  0.8793275957906420  0.5917320213261238
  0.5536412208600978  0.8595044167495824  0.6209486594624655
  0.2687041131220189  0.7073771369914308  0.8477482695190421
  0.2190162013708482  0.6917663527755223  0.8318818257803445
  0.7350340471686840  0.7621599649529993  0.7934487013455083
  0.7522010164334642  0.7083501445261083  0.8086220074663635
  0.7850856861394031  0.6951358099179604  0.7625483932073739
  0.7320342079255974  0.7796606996748220  0.7417438081730350
  0.7369541188221138  0.8278406081955686  0.7341633442422167
  0.7717520844798067  0.7321653328276136  0.7211451232620224
  0.8104915163908296  0.7577109116135073  0.7034926271526176
  0.8166885214142173  0.1477016927140718  0.0799970791868191
  0.7684189265482768  0.1723513080146827  0.0867976588108893
  0.8540002158689344  0.1723700043718629  0.1033957309625964
  0.7640133919667449  0.2146476543376975  0.1076315189443834
  0.8563576525595475  0.2211574250790349  0.1148544020829868
  0.8052337175848764  0.2369698283392292  0.1231319231794297
  0.9140539247279669  0.1908919476991772  0.1456320658869737
  0.8873810736653630  0.2289329112257387  0.1482004944573742
  0.7923031717843096  0.2547846386028978  0.1644422254506928
  0.1068341784256444  0.1515481849086157  0.0844110516177133
  0.0663385482619550  0.1775885797827357  0.1220351451825368
  0.1340903928524887  0.2360582428328541  0.1165391543413965
  0.0934275390397300  0.2175761365235728  0.1348105868043359
  0.1588970474165309  0.2680498625676104  0.1442779569768503
  0.0720908116017195  0.2294314556825958  0.1801583398463884
  0.0580931858632510  0.1919647767131991  0.2106783208599829
  0.5230321950735478  0.5690434150826084  0.2640308892666429
  0.5455869502614873  0.6000019571848971  0.2406980781791160
  0.5833316543522860  0.5891852053293870  0.2185877357637976
  0.6091791130951576  0.5458915242546611  0.2322828150084061
  0.5128971833316243  0.6193560764637935  0.2008008589380095
  0.5379247240870580  0.6292116911461774  0.1629011398067738
  0.5886825968392325  0.6111489442318193  0.1668590554106054
  0.4016857537896064  0.4383040651678488  0.8633420223171774
  0.4469619743633638  0.4236930275881972  0.8610195410501862
  0.4615325932845878  0.4185471675403034  0.8113335489543578
  0.3889821481431701  0.4624718328898251  0.8145632286341564
  0.3699114225148528  0.5043559256306862  0.8045110279608578
  0.4272140311506074  0.4567166688498044  0.7893144370514281
  0.4437885445613547  0.4886933297560960  0.7482019840682297
  0.2129984756299093  0.7050799832659075  0.7784741716954118
  0.3274623773044761  0.7686945608011384  0.8095656437686477
  0.2986978413667005  0.7236353676629869  0.8036369399627770
  0.2604060043126055  0.7216000868540439  0.7668934613204726
  0.2564721881961159  0.7551898518394171  0.7387081908063936
  0.3651357557313195  0.5303599579532532  0.8503691382219657
  0.3818921047640250  0.5783544493135760  0.8456611040436423
  0.7355885244746522  0.0919824984059517  0.8764813797744085
  0.7657466538216462  0.0577744860063745  0.8820438032326923
  0.7954058319539822  0.0488381627035141  0.8385371421392063
  0.7391048625948360  0.1122632703086045  0.8187270729583773
  0.7339911708791724  0.1582427954944098  0.8104868675843655
  0.7724934858255481  0.0779388591346853  0.7963417824272079
  0.8015630525640729  0.1047214032453900  0.7574878948077836
  0.8172965396624416  0.6880016989755535  0.8480901911711657
  0.9206003901289669  0.7050304318103149  0.8502559334814197
  0.9510164323269991  0.7461044389791238  0.8408268549416376
  0.8409894620909589  0.7093989995033732  0.8978043722599571
  0.8911168523522135  0.7217769614189214  0.8963688049874649
  0.8122020807515683  0.7461512345703849  0.9108218385693633
  0.9076797505263544  0.7685126387320109  0.8975032150833838
  0.8743270819391147  0.8013546076147343  0.9209060345526926
  0.8279980775492988  0.7875070372472127  0.9276401067783689
  0.1380790652123366  0.7058932896115594  0.8400047085154949
  0.0820128474210376  0.7793535397830372  0.8147615143131194
  0.0887091705996206  0.8291051721553363  0.8085781159113642
  0.0909744946868390  0.7592451070773769  0.8594480449121269
  0.1242145255207056  0.7355576824925566  0.8784509432764258
  0.0969784509630290  0.8107825280790099  0.8844247503592713
  0.1234299417589638  0.8194411809934113  0.9286525059474623
  0.3819133049769352  0.5030339597680977  0.5509986136673395
  0.3976024991621561  0.5418239821744886  0.5669126834235940
  0.4641415896430738  0.5774853119090551  0.6060511447117445
  0.4276427706816568  0.5401803104428585  0.6142417546608669
  0.4417728713755812  0.5021548520607565  0.6376273738618939
  0.5608735633410874  0.0701281542702277  0.5067924650019345
  0.5135008210093730  0.0442451975109728  0.5211242617743999
  0.0901560781910420  0.1740954303270543  0.7762470008389581
  0.1014068647826262  0.2179472352361360  0.7909725113475613
  0.7018082782890045  0.5429829790596601  0.5194916223176935
  0.7160018602025913  0.5936384687462271  0.5107686894543952
  0.7911440803514342  0.6253810872682527  0.5058654756884687
  0.7509330641133494  0.6198572833766444  0.5403856162613313
  0.7690747189841236  0.5958985129023218  0.5852588877060340
  0.5260842396344887  0.6848538916476190  0.5329572119092181
  0.6158771891037831  0.7422866417911643  0.5294244391589039
  0.8509604972310566  0.8193979806733233  0.0368022580021939
  0.8914733980492040  0.7969172415736537  0.0543606124774002
  0.9226893088220219  0.8173355809059680  0.0890685776518776
  0.9261646859094742  0.8604995218451149  0.0970290734805003
  0.8715712927423468  0.7477360604692238  0.0764223290246477
  0.8977225839696190  0.7377475858842065  0.1211367092599292
  0.9276349992535248  0.7768457982936521  0.1265905822358860
  0.1887762823180481  0.7856714926328775  0.0527506621334025
  0.1590335997506258  0.7588675966850169  0.0683028867735327
  0.1049988159206908  0.8132423591892181  0.0797099033714843
  0.1099968612920582  0.7598796038064528  0.0801760653314009
  0.1819005547862687  0.7182233572873642  0.1048335788336621
  0.1414960359240434  0.7081827506071011  0.1427678001980593
  0.1076083518378413  0.7345736271182239  0.1334398929679261
  0.2975091184006294  0.8609188356531789  0.8883249252489945
  0.2685650657786958  0.8906523764567235  0.8642325048511622
  0.2251754938476370  0.9173563096900208  0.8988576593830365
  0.2770359958331651  0.7998769086230905  0.9263511402206153
  0.2810142250243211  0.8532556789085736  0.9353688979819181
  0.2293292084931079  0.8814217445902740  0.9333203219514683
  0.1909741138518532  0.8620817249977710  0.9514044105652765
  0.5856475401370679  0.2302386121493994  0.4982339767070578
  0.5549634451649282  0.2717790956752729  0.4987395609023571
  0.5390291323977840  0.2779428940268304  0.5470931041483886
  0.6012577244496214  0.1767567480909929  0.5659023953095839
  0.5927315147230152  0.2174450072899837  0.5490568487940114
  0.5605982576337140  0.2433443018481671  0.5726472461970716
  0.5363535457717733  0.2174053950693629  0.6141105955727754
  0.2085044508438650  0.0276735435102758  0.8677831656289982
  0.2976093635881333  0.0822425468441974  0.8789474468172958
  0.3334113292823943  0.1253005886419577  0.8880394431871661
  0.2191558650563516  0.0501461124531523  0.9090796394472266
  0.2603358192176968  0.0801244371871617  0.9030565381524740
  0.1762593887592795  0.0776660924908613  0.9128143210525882
  0.2515535576999299  0.1164610151952865  0.9394986713437312
  0.2145085073035862  0.1299775596558741  0.9611928320685780
  0.1608557184113899  0.1103555834091548  0.9474892906905062
  0.4407451258853576  0.6414609587684396  0.8166440395083446
  0.3881965557159064  0.5832165993008126  0.7963244704135721
  0.4181422687013248  0.6147616760168932  0.7755591952896345
  0.3836664124669085  0.5404718518791710  0.7751624775757402
  0.4181145176804017  0.5300078356989992  0.7456443983442358
  0.5818199441628820  0.5535168637349432  0.5815085920490775
  0.5428329529588566  0.5964773641974368  0.5783425265356521
  0.2536385518064346  0.8245285072699753  0.0526164194931243
  0.2161173137586967  0.8523695382086678  0.0449497422079440
  0.2871551566818169  0.8338470700079370  0.0801992612463808
  0.2031068569214190  0.8925471592277089  0.0717651682051868
  0.2801551370326036  0.8795897593172708  0.0991315920051179
  0.2360826682407618  0.9191996344744969  0.0963689706639196
  0.3066180483980706  0.8170107302802391  0.1576792508292155
  0.2995992069034062  0.8738867378469273  0.1532260667248772
  0.2143810841977210  0.9360129010480124  0.1409227449615862
  0.0998858494523378  0.7531792414251036  0.7699923457922823
  0.1227340742151324  0.7141531374414639  0.7801213614359293
  0.1637913928990965  0.7058408000173987  0.7584069660360571
  0.1241700769205969  0.7745074391903977  0.7340597018889289
  0.1240903758534540  0.8237333635232501  0.7300289186020626
  0.1659452919126293  0.7447835978756188  0.7279389818276878
  0.2070666006257560  0.7609803690064437  0.7145251081975689
  0.1684443692905399  0.0970438932893943  0.0775518442677160
  0.2025386819585393  0.0749429849000686  0.1076499286927763
  0.2613949985637707  0.0783952964123212  0.1340174505182133
  0.2715255747924947  0.1223753121366921  0.1061960002524855
  0.1823802403301902  0.0512974140984245  0.1507017162378882
  0.2187528999794817  0.0425807656784757  0.1891718558855931
  0.2664397712723744  0.0495378069527748  0.1683894473885066
  0.5019267200492933  0.3687325547394360  0.4968364481057582
  0.5797205022711484  0.4179499322181220  0.5372375676108211
  0.5996846984425781  0.4652369774916415  0.5554700845302197
  0.5069444137713499  0.3858446106523025  0.5478113218787012
  0.5427687371296783  0.4040465857080155  0.5718261342501669
  0.4643541977992212  0.3868010973255356  0.5645389320275072
  0.5512819366284120  0.4341570384221431  0.6191241178474813
  0.3036744767974937  0.2256860834820439  0.8790852300044805
  0.2629572596835469  0.2543430183674675  0.8683275561022878
  0.2290414016961120  0.2374047539562650  0.8973456097274154
  0.3028260330239457  0.1496582809686095  0.9210690170372677
  0.2837425596016984  0.1951527298506553  0.9185398716123924
  0.2337277363813804  0.1972084225702131  0.9249554620240896
  0.2041617955597486  0.1841462709586124  0.9543702269448709
  0.5971143752956937  0.4474534437435003  0.8159071989807629
  0.5479628331967936  0.4184205718671511  0.8303018084057578
  0.5088332413969598  0.4230026381853951  0.7872764958246120
  0.5675689206643644  0.5264131396399819  0.7685222462992755
  0.5707927477931000  0.4768260440272909  0.7818321673912461
  0.5316799780314271  0.4511794768808324  0.7524542421807302
  0.4950708259360012  0.4908458728261257  0.7434934288871087
  0.5115064425917543  0.5775903923819693  0.6176432602017830
  0.5809958675545945  0.4713839542955534  0.6076262890174605
  0.5646232173294129  0.5232727586033890  0.6171557220288182
  0.5234243304335534  0.5343994853761234  0.6408531556339339
  0.4878285186088565  0.4974340155411205  0.6437371483585429
  0.7314780796879634  0.5885702134781048  0.4659090103012042
  0.7777862536398862  0.6112661998244115  0.4621362614403002
  0.4859675125527429  0.6483239559761712  0.8092653582876191
  0.5733524260856901  0.6102849044251490  0.7966336203635069
  0.4816338872278618  0.4309464153828770  0.8982235568810102
  0.4059679464311768  0.4715047787715301  0.8927411982272697
  0.3815524793124572  0.5154763708704615  0.8917573217631913
  0.4265057780017657  0.4716046132730594  0.9356022361613188
  0.4832381522816024  0.4493026715317788  0.9430151987899491
  0.4272237248214361  0.5136560418872409  0.9623807155084939
  0.4619411602954812  0.5345665401201973  0.9723337282744677
  0.1853238217179432  0.1360055430565957  0.0574458754210778
  0.1503035824857101  0.1734961494512111  0.0687490643842040
  0.2404789270312958  0.1462722232055580  0.0765694983543861
  0.1650920842110463  0.2197370467008380  0.0710674069761677
  0.2490200191110571  0.2005808834142849  0.0781235537715508
  0.2149140119241680  0.2282977135900288  0.0894060758716816
  0.3055905301113835  0.1570720678780444  0.1231149247539133
  0.2946969928214326  0.2034205996645639  0.1238847052794007
  0.2087355521284683  0.2618561251936208  0.1279368225193004
  0.2862464807478399  0.0640263014119610  0.8358966710212872
  0.2444303531309831  0.0452019328864296  0.8328011581900544
  0.2377182698902262  0.0463507317434995  0.7821359674250822
  0.3299784363999889  0.1315630158279000  0.8027861846478378
  0.3024404331395674  0.0866428022880390  0.7923979178018178
  0.2770540710675751  0.0722004255847478  0.7522644977666126
  0.2559897803929936  0.1140834559910627  0.7259953519499756
  0.7249640644330282  0.4244246584902854  0.5106925601700342
  0.7711460957204185  0.4113805739285290  0.5170041370201057
  0.8066395188542691  0.3879833243395062  0.4916330684124686
  0.7456286866032564  0.4334588216738579  0.4514960199703076
  0.7387843692762305  0.4701082062030078  0.4178362120345897
  0.7878444579400641  0.4124698725748248  0.4403955755822173
  0.8274641057627832  0.4309400594281248  0.4239611339237921
  0.4863602445022904  0.4530875630074109  0.0524520894898277
  0.4545847694321212  0.4209483771068334  0.0795352860824491
  0.3961937847736309  0.4810089271253241  0.1042214904502790
  0.4098898076639636  0.4293178708081429  0.1070770595780229
  0.4937960652664125  0.4009582974030259  0.1177025284301265
  0.4692014234751579  0.3880005943879458  0.1532495490107697
  0.4125584710715001  0.4205187117814481  0.1567052272906025
  0.5795259334471414  0.5603307452682381  0.8067951503768167
  0.5009933291616940  0.6382349729388245  0.7672789524037361
  0.5519873258870255  0.6165459807471921  0.7566052886622251
  0.4559500834390983  0.6167166284740652  0.7478151167098217
  0.5398848174570756  0.5635458718031440  0.7392384386391935
  0.4539530942865417  0.5688736729550374  0.7255126228624632
  0.4965168640376926  0.5482128771035394  0.7374880936752644
  0.3839309025120747  0.6117778091553155  0.8832025925278223
  0.4293509770380833  0.6402821357157685  0.8687946324749197
  0.4048877025760337  0.5471728140807554  0.9306112894623580
  0.3900010511478580  0.5880720896643671  0.9293598658567110
  0.4602613764288182  0.6429489337565207  0.9133925353929586
  0.4471983393066087  0.6239203947436726  0.9519868406931000
  0.4778627674304731  0.5870746138614329  0.9566166956505635
  0.1811949907112929  0.6848784629208572  0.8612830237292112
  0.2697107796911452  0.7378486651402840  0.8847622081694149
  0.3033147097625215  0.7745931629451859  0.8961841243703103
  0.1849705730197454  0.7060466615507036  0.9061914105363453
  0.2355328332507903  0.7300629582609608  0.9172527493464407
  0.1424034560839942  0.7429368010627073  0.9221235598448534
  0.2398743116346612  0.7629440287891432  0.9522404677040367
  0.1997491112203952  0.7839108089428174  0.9617992543284071
  0.1526178823048304  0.7803868997999985  0.9488647179842281
  0.7301630998357883  0.8538338250739628  0.7765355706794875
  0.7750951224986522  0.8893343403580833  0.7716543478592660
  0.8802505473029185  0.9183373584172257  0.7603030746026358
  0.7936522815894014  0.8893593296074438  0.7175760328851092
  0.8490928008085513  0.8946059080984403  0.7227021945906397
  0.7732858505692293  0.8357697343662943  0.7033112159826996
  0.8140339018237640  0.8058234237833424  0.6959360915576376
  0.2462044297564037  0.2752157388024097  0.8186428407579722
  0.3239540567554855  0.2007442222311050  0.8457123726692807
  0.3440066227107225  0.1578802279732064  0.8504617314299628
  0.2724148842542930  0.2360278075750752  0.7816857545885764
  0.3060346090322774  0.2086272057287172  0.8036703054342629
  0.2558656472712996  0.2275021798507426  0.7372305706999107
  0.3196890250983114  0.1596505093873029  0.7661359334450587
  0.2467619974323482  0.1916658884003214  0.7115967029903602
  0.2844495894543634  0.1518463802194900  0.7383486067216712
  0.4615555352939834  0.5030814261752540  0.0499787014910710
  0.4225921925057011  0.5103866605860700  0.0747971033429436
  0.4562474816207758  0.5910010491150637  0.0814853059673483
  0.4183250974779495  0.5570616467600199  0.0890900804700208
  0.4691319359045664  0.6114479949999539  0.1268166941504918
  0.3895284305925544  0.5552338307821888  0.1331833437886665
  0.3826424479656504  0.5094697174507364  0.1438215471539851
  0.2354790426745930  0.7714321695143092  0.0683488393922351
  0.2625786150144345  0.7347773694967783  0.0861501999327599
  0.2942741412229940  0.7421529316671166  0.1185966010685567
  0.2986640986588234  0.7915185420273968  0.1206103484576882
  0.2221787921697889  0.6973002794966708  0.1089465445967612
  0.2422104835766706  0.6901553835358614  0.1660619203502866
  0.2808510104475385  0.7121702135064359  0.1610751559798946
  0.8971138618131905  0.6943602378695674  0.8105870527368829
  0.8471405875929015  0.6705801233639140  0.8127823315393814
  0.8282196149791596  0.6854491478887376  0.7612695277793337
  0.9364712621475093  0.7512713259095949  0.7577594577061572
  0.9029116324359184  0.7115616255915941  0.7625136234104066
  0.8605193115274911  0.7058287133300237  0.7387561910952788
  0.8552831232316132  0.7351767654011282  0.7042381538291834
  0.5757705817309012  0.4211627017332190  0.4887817027751939
  0.5329007473653695  0.4059110042647152  0.4710349331105004
  0.5280271270063817  0.4182828771554487  0.4159904976041234
  0.6096178815950942  0.4993080243366997  0.4757339938131895
  0.5943100356720891  0.4524954464366872  0.4582682825364664
  0.5595441784817988  0.4571873615105068  0.4183292639523102
  0.5442113157807190  0.5021351357898929  0.3985652560354552
  0.7971905425056717  0.9145055121715644  0.8022787237863548
  0.8561535053269402  0.9310183894476132  0.7985461591010782
  0.7600132577483121  0.8615921467673865  0.8561704260335443
  0.7870744017390243  0.8935267281104782  0.8429617291530410
  0.8718623741150191  0.9079027351495874  0.8453982118505179
  0.8338882232685616  0.8944047449756821  0.8656833857742631
  0.8351509559653517  0.8699598521473548  0.9111244527484194
  0.7382694693128699  0.1899915554593575  0.8512312910866047
  0.7501254106796165  0.2287489502391241  0.8333667774423841
  0.8259885821541173  0.2645906739784311  0.8058704406856479
  0.7685463032453604  0.2221452723855775  0.7852048748470783
  0.7973477176182097  0.2475537623246925  0.7518337286060961
  0.7668835792883545  0.1675983616800064  0.7727497772589986
  0.7980081628082921  0.1458870762398893  0.7452593314499191
  0.7495201508650585  0.5577990307929064  0.6030684038632295
  0.7197933376720522  0.5343069905137189  0.5630028075703571
  0.8087284291318501  0.0543807303589827  0.9272327818091967
  0.7273562359224180  0.1232901108813961  0.9167389728367933
  0.7202191982426708  0.1693166661818843  0.8969876109192906
  0.7715246306315768  0.1308254165823093  0.9488855739723051
  0.8021292555540096  0.0998117697595761  0.9515073406662218
  0.7835133982142207  0.1711870798810952  0.9767746336177967
  0.8302102483848991  0.1848178027285690  0.9831216033563106
  0.6558486836096458  0.7799481522823951  0.5274498733297057
  0.5432915951248888  0.7188743539781612  0.5776392474228633
  0.5925020924321996  0.7451825002780199  0.5781726429237145
  0.5087213761616105  0.7474717854072302  0.5916928144192336
  0.5994432360854548  0.7878468684871032  0.6078603269484130
  0.5654066568589657  0.8116426067481615  0.6236076000516875
  0.5140196436423122  0.7825183369863725  0.6181980395215277
  0.2445911046046945  0.6093476814957959  0.4892004027496489
  0.2091349410573164  0.6472287629661850  0.5056723278641938
  0.7752777524847354  0.8616297944928654  0.0604989002935807
  0.7365039549938680  0.8604871892237835  0.0878373481574000
  0.7578130810946452  0.9334897787891261  0.1258305988326096
  0.7305155636365042  0.8980773693400472  0.1229931397393419
  0.7715277945104321  0.9427568348592925  0.1719433397153113
  0.7029244329392178  0.8681484551977131  0.1588361191894578
  0.7046271076064142  0.8172989945003345  0.1470118780618269
  0.4917604672516273  0.0537513697749084  0.4749499745793637
  0.5799264019537268  0.1172654163177100  0.4382670006863955
  0.5544405422907737  0.0851094982932609  0.4576835953397569
  0.5129117759762957  0.0672976915327552  0.4364171640456366
  0.4933514286772459  0.1135797285474770  0.4200130413623354
  0.5665794629917136  0.9312109005935543  0.4863742181374002
  0.6378560905771407  0.8644469948899759  0.4887676321140223
  0.7670402355173669  0.0903369643134735  0.1026839274099292
  0.7631092474523051  0.0455356833786721  0.1374981755439388
  0.7088610769333954  0.0986130536726578  0.1709508962358003
  0.7271591933782192  0.0590437682657166  0.1704909314584998
  0.8103169766058379  0.0352289718512732  0.1557572723659905
  0.7954016889792731  0.0271469277673005  0.2045079931828704
  0.7553559722966044  0.0503051834952521  0.2158676811637790
  0.7614643697105796  0.4612265084736314  0.5906494198717102
  0.7257661680172076  0.4896548921912324  0.5684829947864534
  0.7011883201046213  0.4984412246575894  0.4899347755039560
  0.7186452852854711  0.4661749584211836  0.5193795204396120
  0.7833518280751599  0.4222882104771112  0.5664718452969132
  0.4634018075436560  0.4235924758676274  0.6123121321466646
  0.5075074595117437  0.4519062974166152  0.6336648677077478
  0.7792589389132171  0.2364712518570959  0.8680628031329068
  0.8155614499967516  0.2662616916918236  0.8525994353498971
  0.7604306922186185  0.1999093507799364  0.9407994591967581
  0.7845983553058220  0.2290894676588564  0.9181874010706346
  0.8478283985877791  0.2741903145107128  0.8934971026882647
  0.8351376458043851  0.2519146256044728  0.9323897721787769
  0.8560897071584390  0.2226687390262203  0.9707624219282756
  0.5377425403206796  0.4307784927249575  0.8780021392269590
  0.6120009508388582  0.4877037886814747  0.8457368881036177
  0.6059348502753080  0.5316751891933772  0.8422627691270854
  0.5637116087522843  0.4434307768339883  0.9118406288952560
  0.5999270007624651  0.4716218428271785  0.8904010424137868
  0.5234636894944473  0.4615719679421384  0.9649966497829295
  0.6054516178319204  0.5317944520807349  0.9257074912901668
  0.5531756920369465  0.5430295035347831  0.9602120103076106
  0.5250299434238399  0.5098230564889279  0.9710567992879263
  0.4856407263102896  0.8159714230960762  0.6051490062126296
  0.4446389825467627  0.8197903858849427  0.5764587080675140
  0.4651277738321865  0.7335871895609395  0.5666901110890221
  0.4178043133192460  0.7749342275788778  0.5705790225321424
  0.3939577139593341  0.8447042748003797  0.5350275746433231
  0.3948505383587344  0.7911288683534153  0.5337111757350539
  0.4667209619074249  0.6974385087925533  0.5363995049648645
  0.2641241857383126  0.8998882663590166  0.8152757679361893
  0.3162312876554279  0.8352725872474482  0.8525982549681083
  0.3228339762135972  0.7913772674364310  0.8512296486111793
  0.2901650079112612  0.8840571271897421  0.7790169848209511
  0.3187456143763174  0.8490518304259589  0.8019566054342656
  0.2625504976752697  0.8840534727350385  0.7412446589778634
  0.3257791097803344  0.8053794621844770  0.7730208802737788
  0.2630704379989234  0.8347660636657326  0.7253619243675941
  0.2709144589592536  0.7953838318288448  0.7449986513344120
  0.7408556820283935  0.1320300831944723  0.1008087516807839
  0.7030234844012297  0.1376794333195915  0.1283362101217957
  0.7238755159115029  0.2263982629689896  0.1381248121584816
  0.6968298358569137  0.1843166118821321  0.1498120145424237
  0.7480128235172301  0.2344947013768318  0.1767965104148213
  0.6956718482850719  0.1716237036850551  0.2026859640040378
  0.6964233436872820  0.1221916751893579  0.2093894401517773
  0.5326729182210861  0.4682959706364132  0.0605076626543599
  0.5612601110669523  0.4361490239833821  0.0771611205681301
  0.5972680706613820  0.4586236407650651  0.0997665974965092
  0.6157845720938221  0.5164208322333693  0.0917696951476025
  0.5423731551008892  0.3985913114897945  0.1208548213143019
  0.5721677717284098  0.4025810795149404  0.1604887512444442
  0.5965647388895329  0.4479389504465903  0.1532754344188275
  0.1917431349093929  0.2828776630624154  0.7950562208220808
  0.1485142081542659  0.2355453127754468  0.7504311636106782
  0.1727281860088986  0.2636463828147563  0.7583774619862118
  0.1567281472050139  0.1839787649261818  0.7234352777922778
  0.1972306466934174  0.1683867726541593  0.7094991676086094
  0.8761946660009584  0.2522673601118331  0.7876209705181331
  0.9595272603829970  0.1811548433925474  0.7983211723651377
  0.5705188447509347  0.6370736897777556  0.8324606371881100
  0.5198425913874327  0.6526842996224819  0.8439555686090242
  0.5088984959889845  0.6406395579377619  0.8893098597193824
  0.6082275108774046  0.5606157258843847  0.8843706104475942
  0.5879165589687961  0.6091323063551785  0.8875115106556781
  0.5403935721788630  0.6150881393462864  0.9163732542871639
  0.5252098851118050  0.5792943919830942  0.9376805569652220