K-Spacing Value to Generate K-Mesh: 0.060
0
Gamma
   1   1   1
0.0  0.0  0.0
