POSCAR file written by OVITO
1
30.0 0.0 0.0
0.0 30.0 0.0
0.0 0.0 30.0
Type_1 
900 
Cartesian
27.865202 27.4893284 25.7231636
26.6802006 28.3503285 25.7231636
25.9482022 28.1123295 26.9681644
28.292202 25.403328 26.9681644
27.865202 26.7203293 26.9681644
26.6802006 27.1043282 27.738163
25.9882012 26.151329 28.4661637
2.6472016 27.4893284 25.7231636
3.8322015 28.3503285 25.7231636
2.2192016 25.403328 26.9681644
2.6472016 26.7203293 26.9681644
4.5642014 28.1123295 26.9681644
3.8322015 27.1043282 27.738163
4.5242014 26.151329 28.4661637
25.9882012 1.7133287 25.7231636
28.292202 3.3883288 25.7231636
28.7452011 4.7803288 25.7231636
26.4402008 2.3363288 26.9681644
27.5612011 3.1503286 26.9681644
25.2562008 2.7213288 27.738163
27.5612011 4.3953285 27.738163
26.4402008 4.7593289 28.4661637
25.2562008 3.8993288 28.4661637
4.5242014 1.7133287 25.7231636
2.2202015 3.3883288 25.7231636
1.7672014 4.7803288 25.7231636
2.9512014 3.1503286 26.9681644
4.0722013 2.3363288 26.9681644
2.9512014 4.3953285 27.738163
4.0722013 4.7593289 28.4661637
26.4402008 25.5293293 1.802164
25.2562008 26.389328 1.802164
27.5612011 25.8933296 2.530164
25.2562008 27.5673294 2.530164
27.5612011 27.1383286 3.300164
26.4402008 27.9523296 3.300164
28.7452011 25.5083294 4.5451641
28.292202 26.9003296 4.5451641
25.9882012 28.5753289 4.5451641
4.0722013 25.5293293 1.802164
2.9512014 25.8933296 2.530164
4.0722013 27.9523296 3.300164
2.9512014 27.1383286 3.300164
4.5242014 28.5753289 4.5451641
2.2192016 26.9003296 4.5451641
1.7672014 25.5083294 4.5451641
25.9882012 4.1373286 1.802164
26.6802006 3.1843288 2.530164
27.865202 3.5683286 3.300164
28.292202 4.8853288 3.300164
25.9482022 2.1763287 3.300164
26.6802006 1.9383288 4.5451641
27.865202 2.7993288 4.5451641
4.5242014 4.1373286 1.802164
3.8322015 3.1843288 2.530164
2.2192016 4.8853288 3.300164
2.6472016 3.5683286 3.300164
4.5642014 2.1763287 3.300164
3.8322015 1.9383288 4.5451641
2.6472016 2.7993288 4.5451641
27.865202 7.4885164 25.7231636
26.6802006 8.3495159 25.7231636
25.9482022 8.111516 26.9681644
28.292202 5.4025164 26.9681644
27.865202 6.7195163 26.9681644
26.6802006 7.1035161 27.738163
25.9882012 6.150516 28.4661637
2.6472016 7.4885164 25.7231636
3.8322015 8.3495159 25.7231636
2.2192016 5.4025164 26.9681644
2.6472016 6.7195163 26.9681644
4.5642014 8.111516 26.9681644
3.8322015 7.1035161 27.738163
4.5242014 6.150516 28.4661637
17.8489514 27.4893284 15.706914
16.6639519 28.3503285 15.706914
15.9319516 28.1123295 16.9519138
18.2759514 25.403328 16.9519138
17.8489514 26.7203293 16.9519138
16.6639519 27.1043282 17.7219143
15.9719516 26.151329 18.449913
7.8570766 22.7977028 24.5289135
6.6720763 21.9367046 24.5289135
22.630951 22.7977028 24.5289135
23.8159523 21.9367046 24.5289135
24.5479508 22.1747036 23.2839146
22.630951 23.5667038 23.2839146
22.2029514 24.8837032 23.2839146
23.8159523 23.182703 22.5139141
24.5079518 24.135704 21.7859135
26.4402008 5.5285163 1.802164
25.2562008 6.3885164 1.802164
27.5612011 5.8925162 2.530164
25.2562008 7.5665164 2.530164
27.5612011 7.137516 3.300164
26.4402008 7.9515162 3.300164
28.7452011 5.5075164 4.5451641
28.292202 6.8995162 4.5451641
25.9882012 8.5745163 4.5451641
4.0722013 5.5285163 1.802164
2.9512014 5.8925162 2.530164
4.0722013 7.9515162 3.300164
2.9512014 7.137516 3.300164
4.5242014 8.5745163 4.5451641
2.2192016 6.8995162 4.5451641
1.7672014 5.5075164 4.5451641
15.9719516 16.149704 8.4580393
16.6639519 17.1027031 7.7300391
17.8489514 16.7187042 6.9600392
18.2759514 15.4017038 6.9600392
15.9319516 18.1107044 6.9600392
16.6639519 18.3487034 5.7150388
17.8489514 17.4877033 5.7150388
12.6390763 12.7985163 24.5289135
13.8240767 11.9375162 24.5289135
14.5560761 12.1755161 23.2839146
12.6390763 13.5675164 23.2839146
12.2110767 14.8845158 23.2839146
13.8240767 13.1835165 22.5139141
14.5160761 14.1365166 21.7859135
5.9400764 22.1747036 23.2839146
8.2840767 24.8837032 23.2839146
7.8570766 23.5667038 23.2839146
6.6720763 23.182703 22.5139141
5.9800764 24.135704 21.7859135
11.7590761 15.5067034 24.5289135
12.2110767 16.8987046 24.5289135
22.630951 2.7993288 24.5289135
23.8159523 1.9383288 24.5289135
24.5479508 2.1763287 23.2839146
22.630951 3.5683286 23.2839146
22.2029514 4.8853288 23.2839146
23.8159523 3.1843288 22.5139141
24.5079518 4.1373286 21.7859135
25.9882012 21.7117043 25.7231636
28.292202 23.3867035 25.7231636
28.7452011 24.7787037 25.7231636
26.4402008 22.3347035 26.9681644
27.5612011 23.1487045 26.9681644
25.2562008 22.7197037 27.738163
27.5612011 24.3937035 27.738163
26.4402008 24.7577038 28.4661637
25.2562008 23.8977032 28.4661637
4.5242014 21.7117043 25.7231636
2.2202015 23.3867035 25.7231636
1.7672014 24.7787037 25.7231636
2.9512014 23.1487045 26.9681644
4.0722013 22.3347035 26.9681644
2.9512014 24.3937035 27.738163
4.0722013 24.7577038 28.4661637
12.2110767 15.4017038 16.9519138
12.6390763 16.7187042 16.9519138
14.5560761 18.1107044 16.9519138
13.8240767 17.1027031 17.7219143
14.5160761 16.149704 18.449913
17.8489514 2.7993288 14.5370388
16.6639519 1.9383288 14.5370388
1.7672014 5.5075164 24.5289135
2.2192016 6.8995162 24.5289135
22.2029514 15.4017038 16.9519138
22.630951 16.7187042 16.9519138
24.5479508 18.1107044 16.9519138
23.8159523 17.1027031 17.7219143
24.5079518 16.149704 18.449913
15.9719516 21.7117043 15.706914
18.2759514 23.3867035 15.706914
25.9882012 24.135704 1.802164
26.6802006 23.182703 2.530164
27.865202 23.5667038 3.300164
28.292202 24.8837032 3.300164
25.9482022 22.1747036 3.300164
26.6802006 21.9367046 4.5451641
27.865202 22.7977028 4.5451641
4.5242014 24.135704 1.802164
3.8322015 23.182703 2.530164
2.2192016 24.8837032 3.300164
2.6472016 23.5667038 3.300164
4.5642014 22.1747036 3.300164
3.8322015 21.9367046 4.5451641
2.6472016 22.7977028 4.5451641
7.8570766 27.4893284 25.7231636
6.6720763 28.3503285 25.7231636
5.9400764 28.1123295 26.9681644
8.2840767 25.403328 26.9681644
7.8570766 26.7203293 26.9681644
6.6720763 27.1043282 27.738163
5.9800764 26.151329 28.4661637
17.8489514 7.4885164 15.706914
16.6639519 8.3495159 15.706914
15.9319516 8.111516 16.9519138
18.2759514 5.4025164 16.9519138
17.8489514 6.7195163 16.9519138
16.6639519 7.1035161 17.7219143
15.9719516 6.150516 18.449913
5.9800764 1.7133287 25.7231636
8.2840767 3.3883288 25.7231636
8.7370768 4.7803288 25.7231636
6.4320765 2.3363288 26.9681644
7.5530763 3.1503286 26.9681644
5.2480765 2.7213288 27.738163
7.5530763 4.3953285 27.738163
6.4320765 4.7593289 28.4661637
5.2480765 3.8993288 28.4661637
14.5160761 18.5737038 24.5289135
12.9430762 17.1367035 23.2839146
14.0640764 17.9507046 23.2839146
12.9430762 15.8917036 22.5139141
14.0640764 15.5277033 21.7859135
17.8489514 17.4877033 15.706914
16.6639519 18.3487034 15.706914
6.4320765 25.5293293 1.802164
5.2480765 26.389328 1.802164
7.5530763 25.8933296 2.530164
5.2480765 27.5673294 2.530164
7.5530763 27.1383286 3.300164
6.4320765 27.9523296 3.300164
8.7370768 25.5083294 4.5451641
8.2840767 26.9003296 4.5451641
5.9800764 28.5753289 4.5451641
2.6472016 22.7977028 24.5289135
3.8322015 21.9367046 24.5289135
4.5642014 22.1747036 23.2839146
2.6472016 23.5667038 23.2839146
2.2192016 24.8837032 23.2839146
3.8322015 23.182703 22.5139141
4.5242014 24.135704 21.7859135
5.9800764 4.1373286 1.802164
6.6720763 3.1843288 2.530164
7.8570766 3.5683286 3.300164
8.2840767 4.8853288 3.300164
5.9400764 2.1763287 3.300164
6.6720763 1.9383288 4.5451641
7.8570766 2.7993288 4.5451641
15.9719516 11.7125159 15.706914
18.2759514 13.387516 15.706914
18.7289524 14.7795162 15.706914
16.4239521 12.335516 16.9519138
17.5449524 13.1495161 16.9519138
15.2399511 12.7205162 17.7219143
17.5449524 14.394516 17.7219143
7.8570766 7.4885164 25.7231636
6.6720763 8.3495159 25.7231636
5.9400764 8.111516 26.9681644
8.2840767 5.4025164 26.9681644
7.8570766 6.7195163 26.9681644
6.6720763 7.1035161 27.738163
5.9800764 6.150516 28.4661637
17.8489514 12.7985163 24.5289135
16.6639519 11.9375162 24.5289135
15.9319516 12.1755161 23.2839146
18.2759514 14.8845158 23.2839146
17.8489514 13.5675164 23.2839146
16.6639519 13.1835165 22.5139141
15.9719516 14.1365166 21.7859135
15.9319516 18.1107044 16.9519138
18.2759514 15.4017038 16.9519138
17.8489514 16.7187042 16.9519138
16.6639519 17.1027031 17.7219143
15.9719516 16.149704 18.449913
22.630951 17.4877033 15.706914
23.8159523 18.3487034 15.706914
15.9719516 18.5737038 24.5289135
18.2759514 16.8987046 24.5289135
14.5160761 11.7125159 25.7231636
12.2120762 13.387516 25.7231636
11.7590761 14.7795162 25.7231636
12.9430762 13.1495161 26.9681644
14.0640764 12.335516 26.9681644
12.9430762 14.394516 27.738163
14.0640764 14.7585163 28.4661637
6.4320765 5.5285163 1.802164
5.2480765 6.3885164 1.802164
7.5530763 5.8925162 2.530164
5.2480765 7.5665164 2.530164
7.5530763 7.137516 3.300164
6.4320765 7.9515162 3.300164
8.7370768 5.5075164 4.5451641
8.2840767 6.8995162 4.5451641
5.9800764 8.5745163 4.5451641
7.8570766 2.7993288 24.5289135
6.6720763 1.9383288 24.5289135
5.9400764 2.1763287 23.2839146
8.2840767 4.8853288 23.2839146
7.8570766 3.5683286 23.2839146
6.6720763 3.1843288 22.5139141
5.9800764 4.1373286 21.7859135
22.630951 12.7985163 14.5370388
23.8159523 11.9375162 14.5370388
24.5479508 12.1755161 13.2920389
22.630951 13.5675164 13.2920389
22.2029514 14.8845158 13.2920389
23.8159523 13.1835165 12.5220385
24.5079518 14.1365166 11.7940388
14.5160761 14.1365166 1.802164
13.8240767 13.1835165 2.530164
12.2110767 14.8845158 3.300164
12.6390763 13.5675164 3.300164
14.5560761 12.1755161 3.300164
13.8240767 11.9375162 4.5451641
12.6390763 12.7985163 4.5451641
18.7289524 15.5067034 24.5289135
16.4239521 17.9507046 23.2839146
17.5449524 17.1367035 23.2839146
15.2399511 17.5657044 22.5139141
17.5449524 15.8917036 22.5139141
15.2399511 16.387703 21.7859135
16.4239521 15.5277033 21.7859135
12.6390763 17.4877033 25.7231636
13.8240767 18.3487034 25.7231636
12.2110767 15.4017038 26.9681644
12.6390763 16.7187042 26.9681644
14.5560761 18.1107044 26.9681644
13.8240767 17.1027031 27.738163
14.5160761 16.149704 28.4661637
5.9800764 21.7117043 25.7231636
8.2840767 23.3867035 25.7231636
8.7370768 24.7787037 25.7231636
6.4320765 22.3347035 26.9681644
7.5530763 23.1487045 26.9681644
5.2480765 22.7197037 27.738163
7.5530763 24.3937035 27.738163
6.4320765 24.7577038 28.4661637
5.2480765 23.8977032 28.4661637
21.7509518 25.5083294 24.5289135
22.2029514 26.9003296 24.5289135
24.5079518 28.5753289 24.5289135
22.9349518 27.1383286 23.2839146
24.0559521 27.9523296 23.2839146
22.9349518 25.8933296 22.5139141
24.0559521 25.5293293 21.7859135
5.9800764 8.5745163 24.5289135
8.2840767 6.8995162 24.5289135
8.7370768 5.5075164 24.5289135
6.4320765 7.9515162 23.2839146
7.5530763 7.137516 23.2839146
5.2480765 7.5665164 22.5139141
7.5530763 5.8925162 22.5139141
5.2480765 6.3885164 21.7859135
6.4320765 5.5285163 21.7859135
14.0640764 15.5277033 1.802164
12.9430762 15.8917036 2.530164
14.0640764 17.9507046 3.300164
12.9430762 17.1367035 3.300164
14.5160761 18.5737038 4.5451641
12.2110767 16.8987046 4.5451641
11.7590761 15.5067034 4.5451641
5.9800764 24.135704 1.802164
6.6720763 23.182703 2.530164
7.8570766 23.5667038 3.300164
8.2840767 24.8837032 3.300164
5.9400764 22.1747036 3.300164
6.6720763 21.9367046 4.5451641
7.8570766 22.7977028 4.5451641
27.865202 22.7977028 24.5289135
26.6802006 21.9367046 24.5289135
25.9482022 22.1747036 23.2839146
28.292202 24.8837032 23.2839146
27.865202 23.5667038 23.2839146
26.6802006 23.182703 22.5139141
25.9882012 24.135704 21.7859135
17.8489514 12.7985163 14.5370388
16.6639519 11.9375162 14.5370388
15.9319516 12.1755161 13.2920389
18.2759514 14.8845158 13.2920389
17.8489514 13.5675164 13.2920389
16.6639519 13.1835165 12.5220385
15.9719516 14.1365166 11.7940388
22.630951 27.4893284 25.7231636
23.8159523 28.3503285 25.7231636
22.2029514 25.403328 26.9681644
22.630951 26.7203293 26.9681644
24.5479508 28.1123295 26.9681644
23.8159523 27.1043282 27.738163
24.5079518 26.151329 28.4661637
21.7509518 5.5075164 24.5289135
22.2029514 6.8995162 24.5289135
24.5079518 8.5745163 24.5289135
22.9349518 7.137516 23.2839146
24.0559521 7.9515162 23.2839146
22.9349518 5.8925162 22.5139141
24.0559521 5.5285163 21.7859135
24.0559521 14.7585163 18.449913
22.9349518 14.394516 17.7219143
24.5079518 1.7133287 25.7231636
22.2039509 3.3883288 25.7231636
21.7509518 4.7803288 25.7231636
22.9349518 3.1503286 26.9681644
24.0559521 2.3363288 26.9681644
22.9349518 4.3953285 27.738163
24.0559521 4.7593289 28.4661637
18.7289524 24.7787037 15.706914
16.4239521 22.3347035 16.9519138
17.5449524 23.1487045 16.9519138
15.2399511 22.7197037 17.7219143
17.5449524 24.3937035 17.7219143
16.4239521 24.7577038 18.449913
15.2399511 23.8977032 18.449913
7.8570766 17.4877033 15.706914
6.6720763 18.3487034 15.706914
24.0559521 25.5293293 1.802164
22.9349518 25.8933296 2.530164
24.0559521 27.9523296 3.300164
22.9349518 27.1383286 3.300164
24.5079518 28.5753289 4.5451641
22.2029514 26.9003296 4.5451641
21.7509518 25.5083294 4.5451641
15.9319516 2.1763287 13.2920389
18.2759514 4.8853288 13.2920389
17.8489514 3.5683286 13.2920389
16.6639519 3.1843288 12.5220385
15.9719516 4.1373286 11.7940388
15.9719516 28.5753289 14.5370388
18.2759514 26.9003296 14.5370388
24.5079518 4.1373286 1.802164
23.8159523 3.1843288 2.530164
22.2029514 4.8853288 3.300164
22.630951 3.5683286 3.300164
24.5479508 2.1763287 3.300164
23.8159523 1.9383288 4.5451641
22.630951 2.7993288 4.5451641
24.0559521 12.335516 16.9519138
22.9349518 13.1495161 16.9519138
21.7509518 14.7795162 15.706914
22.2039509 13.387516 15.706914
24.5079518 11.7125159 15.706914
15.2399511 13.8985168 18.449913
16.4239521 14.7585163 18.449913
22.630951 7.4885164 25.7231636
23.8159523 8.3495159 25.7231636
22.2029514 5.4025164 26.9681644
22.630951 6.7195163 26.9681644
24.5479508 8.111516 26.9681644
23.8159523 7.1035161 27.738163
24.5079518 6.150516 28.4661637
15.9719516 11.7125159 25.7231636
18.2759514 13.387516 25.7231636
18.7289524 14.7795162 25.7231636
16.4239521 12.335516 26.9681644
17.5449524 13.1495161 26.9681644
15.2399511 12.7205162 27.738163
17.5449524 14.394516 27.738163
16.4239521 14.7585163 28.4661637
15.2399511 13.8985168 28.4661637
14.0640764 24.7577038 18.449913
12.9430762 24.3937035 17.7219143
14.0640764 22.3347035 16.9519138
12.9430762 23.1487045 16.9519138
11.7590761 24.7787037 15.706914
12.2120762 23.3867035 15.706914
14.5160761 21.7117043 15.706914
5.9800764 28.5753289 24.5289135
8.2840767 26.9003296 24.5289135
8.7370768 25.5083294 24.5289135
6.4320765 27.9523296 23.2839146
7.5530763 27.1383286 23.2839146
5.2480765 27.5673294 22.5139141
7.5530763 25.8933296 22.5139141
5.2480765 26.389328 21.7859135
6.4320765 25.5293293 21.7859135
24.0559521 5.5285163 1.802164
22.9349518 5.8925162 2.530164
24.0559521 7.9515162 3.300164
22.9349518 7.137516 3.300164
24.5079518 8.5745163 4.5451641
22.2029514 6.8995162 4.5451641
21.7509518 5.5075164 4.5451641
15.9719516 14.1365166 1.802164
16.6639519 13.1835165 2.530164
17.8489514 13.5675164 3.300164
18.2759514 14.8845158 3.300164
15.9319516 12.1755161 3.300164
16.6639519 11.9375162 4.5451641
17.8489514 12.7985163 4.5451641
4.5242014 8.5745163 24.5289135
2.9512014 7.137516 23.2839146
4.0722013 7.9515162 23.2839146
2.9512014 5.8925162 22.5139141
4.0722013 5.5285163 21.7859135
25.9882012 8.5745163 24.5289135
28.292202 6.8995162 24.5289135
17.8489514 17.4877033 25.7231636
16.6639519 18.3487034 25.7231636
15.9319516 18.1107044 26.9681644
18.2759514 15.4017038 26.9681644
17.8489514 16.7187042 26.9681644
16.6639519 17.1027031 27.738163
15.9719516 16.149704 28.4661637
18.7289524 25.5083294 14.5370388
16.4239521 27.9523296 13.2920389
17.5449524 27.1383286 13.2920389
15.2399511 27.5673294 12.5220385
17.5449524 25.8933296 12.5220385
17.8489514 22.7977028 14.5370388
16.6639519 21.9367046 14.5370388
15.2399511 3.8993288 18.449913
16.4239521 4.7593289 18.449913
17.5449524 4.3953285 17.7219143
15.2399511 2.7213288 17.7219143
17.5449524 3.1503286 16.9519138
16.4239521 2.3363288 16.9519138
18.7289524 4.7803288 15.706914
18.2759514 3.3883288 15.706914
15.9719516 1.7133287 15.706914
24.5079518 21.7117043 25.7231636
22.2039509 23.3867035 25.7231636
21.7509518 24.7787037 25.7231636
22.9349518 23.1487045 26.9681644
24.0559521 22.3347035 26.9681644
22.9349518 24.3937035 27.738163
24.0559521 24.7577038 28.4661637
16.4239521 15.5277033 1.802164
15.2399511 16.387703 1.802164
17.5449524 15.8917036 2.530164
15.2399511 17.5657044 2.530164
17.5449524 17.1367035 3.300164
16.4239521 17.9507046 3.300164
18.7289524 15.5067034 4.5451641
18.2759514 16.8987046 4.5451641
15.9719516 18.5737038 4.5451641
28.7452011 5.5075164 24.5289135
26.4402008 7.9515162 23.2839146
27.5612011 7.137516 23.2839146
25.2562008 7.5665164 22.5139141
27.5612011 5.8925162 22.5139141
25.2562008 6.3885164 21.7859135
26.4402008 5.5285163 21.7859135
5.9400764 18.1107044 16.9519138
8.2840767 15.4017038 16.9519138
7.8570766 16.7187042 16.9519138
6.6720763 17.1027031 17.7219143
5.9800764 16.149704 18.449913
12.6390763 17.4877033 15.706914
13.8240767 18.3487034 15.706914
24.5079518 24.135704 1.802164
23.8159523 23.182703 2.530164
22.2029514 24.8837032 3.300164
22.630951 23.5667038 3.300164
24.5479508 22.1747036 3.300164
23.8159523 21.9367046 4.5451641
22.630951 22.7977028 4.5451641
27.865202 27.4893284 5.7150388
26.6802006 28.3503285 5.7150388
25.9482022 28.1123295 6.9600392
28.292202 25.403328 6.9600392
27.865202 26.7203293 6.9600392
26.6802006 27.1043282 7.7300391
25.9882012 26.151329 8.4580393
2.6472016 27.4893284 5.7150388
3.8322015 28.3503285 5.7150388
2.2192016 25.403328 6.9600392
2.6472016 26.7203293 6.9600392
4.5642014 28.1123295 6.9600392
3.8322015 27.1043282 7.7300391
4.5242014 26.151329 8.4580393
25.9882012 1.7133287 5.7150388
28.292202 3.3883288 5.7150388
28.7452011 4.7803288 5.7150388
26.4402008 2.3363288 6.9600392
27.5612011 3.1503286 6.9600392
25.2562008 2.7213288 7.7300391
27.5612011 4.3953285 7.7300391
26.4402008 4.7593289 8.4580393
25.2562008 3.8993288 8.4580393
4.5242014 1.7133287 5.7150388
2.2202015 3.3883288 5.7150388
1.7672014 4.7803288 5.7150388
2.9512014 3.1503286 6.9600392
4.0722013 2.3363288 6.9600392
2.9512014 4.3953285 7.7300391
4.0722013 4.7593289 8.4580393
15.2399511 26.389328 11.7940388
16.4239521 25.5293293 11.7940388
24.0559521 4.7593289 8.4580393
22.9349518 4.3953285 7.7300391
24.0559521 2.3363288 6.9600392
22.9349518 3.1503286 6.9600392
21.7509518 4.7803288 5.7150388
22.2039509 3.3883288 5.7150388
24.5079518 1.7133287 5.7150388
15.9319516 22.1747036 13.2920389
18.2759514 24.8837032 13.2920389
17.8489514 23.5667038 13.2920389
16.6639519 23.182703 12.5220385
15.9719516 24.135704 11.7940388
21.7509518 15.5067034 14.5370388
22.2029514 16.8987046 14.5370388
15.9719516 8.5745163 14.5370388
18.2759514 6.8995162 14.5370388
18.7289524 5.5075164 14.5370388
16.4239521 7.9515162 13.2920389
17.5449524 7.137516 13.2920389
15.2399511 7.5665164 12.5220385
17.5449524 5.8925162 12.5220385
2.6472016 2.7993288 24.5289135
3.8322015 1.9383288 24.5289135
4.5642014 2.1763287 23.2839146
2.6472016 3.5683286 23.2839146
2.2192016 4.8853288 23.2839146
3.8322015 3.1843288 22.5139141
4.5242014 4.1373286 21.7859135
27.865202 7.4885164 5.7150388
26.6802006 8.3495159 5.7150388
25.9482022 8.111516 6.9600392
28.292202 5.4025164 6.9600392
27.865202 6.7195163 6.9600392
26.6802006 7.1035161 7.7300391
25.9882012 6.150516 8.4580393
2.6472016 7.4885164 5.7150388
3.8322015 8.3495159 5.7150388
2.2192016 5.4025164 6.9600392
2.6472016 6.7195163 6.9600392
4.5642014 8.111516 6.9600392
3.8322015 7.1035161 7.7300391
4.5242014 6.150516 8.4580393
4.0722013 14.7585163 18.449913
2.9512014 14.394516 17.7219143
4.0722013 12.335516 16.9519138
2.9512014 13.1495161 16.9519138
1.7672014 14.7795162 15.706914
2.2202015 13.387516 15.706914
4.5242014 11.7125159 15.706914
25.2562008 13.8985168 18.449913
26.4402008 14.7585163 18.449913
14.0640764 14.7585163 18.449913
12.9430762 14.394516 17.7219143
14.0640764 12.335516 16.9519138
12.9430762 13.1495161 16.9519138
11.7590761 14.7795162 15.706914
12.2120762 13.387516 15.706914
14.5160761 11.7125159 15.706914
15.2399511 6.3885164 11.7940388
16.4239521 5.5285163 11.7940388
12.6390763 27.4893284 15.706914
13.8240767 28.3503285 15.706914
12.2110767 25.403328 16.9519138
12.6390763 26.7203293 16.9519138
14.5560761 28.1123295 16.9519138
13.8240767 27.1043282 17.7219143
14.5160761 26.151329 18.449913
27.865202 2.7993288 24.5289135
26.6802006 1.9383288 24.5289135
25.9482022 2.1763287 23.2839146
28.292202 4.8853288 23.2839146
27.865202 3.5683286 23.2839146
26.6802006 3.1843288 22.5139141
25.9882012 4.1373286 21.7859135
25.9882012 14.1365166 11.7940388
26.6802006 13.1835165 12.5220385
27.865202 13.5675164 13.2920389
28.292202 14.8845158 13.2920389
25.9482022 12.1755161 13.2920389
26.6802006 11.9375162 14.5370388
27.865202 12.7985163 14.5370388
4.5242014 14.1365166 11.7940388
3.8322015 13.1835165 12.5220385
2.2192016 14.8845158 13.2920389
2.6472016 13.5675164 13.2920389
4.5642014 12.1755161 13.2920389
3.8322015 11.9375162 14.5370388
2.6472016 12.7985163 14.5370388
27.5612011 14.394516 17.7219143
25.2562008 12.7205162 17.7219143
27.5612011 13.1495161 16.9519138
26.4402008 12.335516 16.9519138
28.7452011 14.7795162 15.706914
28.292202 13.387516 15.706914
25.9882012 11.7125159 15.706914
5.2480765 13.8985168 18.449913
6.4320765 14.7585163 18.449913
7.5530763 14.394516 17.7219143
5.2480765 12.7205162 17.7219143
7.5530763 13.1495161 16.9519138
6.4320765 12.335516 16.9519138
8.7370768 14.7795162 15.706914
25.9882012 21.7117043 5.7150388
28.292202 23.3867035 5.7150388
28.7452011 24.7787037 5.7150388
26.4402008 22.3347035 6.9600392
27.5612011 23.1487045 6.9600392
25.2562008 22.7197037 7.7300391
27.5612011 24.3937035 7.7300391
26.4402008 24.7577038 8.4580393
25.2562008 23.8977032 8.4580393
4.5242014 21.7117043 5.7150388
2.2202015 23.3867035 5.7150388
1.7672014 24.7787037 5.7150388
2.9512014 23.1487045 6.9600392
4.0722013 22.3347035 6.9600392
2.9512014 24.3937035 7.7300391
4.0722013 24.7577038 8.4580393
26.4402008 15.5277033 11.7940388
25.2562008 16.387703 11.7940388
27.5612011 15.8917036 12.5220385
25.2562008 17.5657044 12.5220385
27.5612011 17.1367035 13.2920389
26.4402008 17.9507046 13.2920389
28.7452011 15.5067034 14.5370388
28.292202 16.8987046 14.5370388
25.9882012 18.5737038 14.5370388
4.0722013 15.5277033 11.7940388
2.9512014 15.8917036 12.5220385
4.0722013 17.9507046 13.2920389
2.9512014 17.1367035 13.2920389
4.5242014 18.5737038 14.5370388
2.2192016 16.8987046 14.5370388
1.7672014 15.5067034 14.5370388
22.630951 7.4885164 5.7150388
23.8159523 8.3495159 5.7150388
24.5079518 26.151329 8.4580393
23.8159523 27.1043282 7.7300391
24.5479508 28.1123295 6.9600392
22.630951 26.7203293 6.9600392
22.2029514 25.403328 6.9600392
24.5079518 18.5737038 14.5370388
22.9349518 17.1367035 13.2920389
24.0559521 17.9507046 13.2920389
22.9349518 15.8917036 12.5220385
24.0559521 15.5277033 11.7940388
15.9719516 18.5737038 14.5370388
18.2759514 16.8987046 14.5370388
7.8570766 27.4893284 5.7150388
6.6720763 28.3503285 5.7150388
5.9400764 28.1123295 6.9600392
8.2840767 25.403328 6.9600392
7.8570766 26.7203293 6.9600392
6.6720763 27.1043282 7.7300391
5.9800764 26.151329 8.4580393
18.7289524 15.5067034 14.5370388
16.4239521 17.9507046 13.2920389
17.5449524 17.1367035 13.2920389
15.2399511 17.5657044 12.5220385
17.5449524 15.8917036 12.5220385
15.2399511 16.387703 11.7940388
16.4239521 15.5277033 11.7940388
5.9800764 1.7133287 5.7150388
8.2840767 3.3883288 5.7150388
8.7370768 4.7803288 5.7150388
6.4320765 2.3363288 6.9600392
7.5530763 3.1503286 6.9600392
5.2480765 2.7213288 7.7300391
7.5530763 4.3953285 7.7300391
6.4320765 4.7593289 8.4580393
5.2480765 3.8993288 8.4580393
14.0640764 4.7593289 18.449913
12.9430762 4.3953285 17.7219143
14.0640764 2.3363288 16.9519138
12.9430762 3.1503286 16.9519138
11.7590761 4.7803288 15.706914
12.2120762 3.3883288 15.706914
14.5160761 1.7133287 15.706914
24.0559521 24.7577038 8.4580393
22.9349518 24.3937035 7.7300391
24.0559521 22.3347035 6.9600392
22.9349518 23.1487045 6.9600392
21.7509518 24.7787037 5.7150388
22.2039509 23.3867035 5.7150388
24.5079518 21.7117043 5.7150388
27.865202 17.4877033 15.706914
26.6802006 18.3487034 15.706914
14.0640764 25.5293293 11.7940388
12.9430762 25.8933296 12.5220385
14.0640764 27.9523296 13.2920389
12.9430762 27.1383286 13.2920389
14.5160761 28.5753289 14.5370388
12.2110767 26.9003296 14.5370388
11.7590761 25.5083294 14.5370388
1.7672014 25.5083294 24.5289135
2.2192016 26.9003296 24.5289135
4.5242014 28.5753289 24.5289135
2.9512014 27.1383286 23.2839146
4.0722013 27.9523296 23.2839146
2.9512014 25.8933296 22.5139141
4.0722013 25.5293293 21.7859135
14.5160761 4.1373286 11.7940388
13.8240767 3.1843288 12.5220385
12.2110767 4.8853288 13.2920389
12.6390763 3.5683286 13.2920389
14.5560761 2.1763287 13.2920389
13.8240767 1.9383288 14.5370388
12.6390763 2.7993288 14.5370388
7.8570766 7.4885164 5.7150388
6.6720763 8.3495159 5.7150388
5.9400764 8.111516 6.9600392
8.2840767 5.4025164 6.9600392
7.8570766 6.7195163 6.9600392
6.6720763 7.1035161 7.7300391
5.9800764 6.150516 8.4580393
25.9882012 28.5753289 24.5289135
28.292202 26.9003296 24.5289135
28.7452011 25.5083294 24.5289135
26.4402008 27.9523296 23.2839146
27.5612011 27.1383286 23.2839146
25.2562008 27.5673294 22.5139141
27.5612011 25.8933296 22.5139141
8.2840767 13.387516 15.706914
5.9800764 11.7125159 15.706914
14.5160761 6.150516 18.449913
13.8240767 7.1035161 17.7219143
14.5560761 8.111516 16.9519138
12.6390763 6.7195163 16.9519138
12.2110767 5.4025164 16.9519138
13.8240767 8.3495159 15.706914
12.6390763 7.4885164 15.706914
14.5160761 11.7125159 5.7150388
12.2120762 13.387516 5.7150388
11.7590761 14.7795162 5.7150388
12.9430762 13.1495161 6.9600392
14.0640764 12.335516 6.9600392
12.9430762 14.394516 7.7300391
14.0640764 14.7585163 8.4580393
25.2562008 26.389328 21.7859135
26.4402008 25.5293293 21.7859135
15.2399511 13.8985168 8.4580393
16.4239521 14.7585163 8.4580393
17.5449524 14.394516 7.7300391
15.2399511 12.7205162 7.7300391
17.5449524 13.1495161 6.9600392
16.4239521 12.335516 6.9600392
18.7289524 14.7795162 5.7150388
14.0640764 5.5285163 11.7940388
12.9430762 5.8925162 12.5220385
14.0640764 7.9515162 13.2920389
12.9430762 7.137516 13.2920389
14.5160761 8.5745163 14.5370388
12.2110767 6.8995162 14.5370388
11.7590761 5.5075164 14.5370388
5.9800764 14.1365166 11.7940388
6.6720763 13.1835165 12.5220385
7.8570766 13.5675164 13.2920389
8.2840767 14.8845158 13.2920389
5.9400764 12.1755161 13.2920389
6.6720763 11.9375162 14.5370388
7.8570766 12.7985163 14.5370388
14.5160761 14.1365166 11.7940388
13.8240767 13.1835165 12.5220385
12.2110767 14.8845158 13.2920389
12.6390763 13.5675164 13.2920389
14.5560761 12.1755161 13.2920389
13.8240767 11.9375162 14.5370388
12.6390763 12.7985163 14.5370388
18.2759514 13.387516 5.7150388
15.9719516 11.7125159 5.7150388
25.9482022 18.1107044 16.9519138
28.292202 15.4017038 16.9519138
27.865202 16.7187042 16.9519138
26.6802006 17.1027031 17.7219143
25.9882012 16.149704 18.449913
12.6390763 17.4877033 5.7150388
13.8240767 18.3487034 5.7150388
12.2110767 15.4017038 6.9600392
12.6390763 16.7187042 6.9600392
14.5560761 18.1107044 6.9600392
13.8240767 17.1027031 7.7300391
14.5160761 16.149704 8.4580393
5.9800764 21.7117043 5.7150388
8.2840767 23.3867035 5.7150388
8.7370768 24.7787037 5.7150388
6.4320765 22.3347035 6.9600392
7.5530763 23.1487045 6.9600392
5.2480765 22.7197037 7.7300391
7.5530763 24.3937035 7.7300391
6.4320765 24.7577038 8.4580393
5.2480765 23.8977032 8.4580393
23.8159523 28.3503285 5.7150388
22.630951 27.4893284 5.7150388
2.2192016 15.4017038 16.9519138
2.6472016 16.7187042 16.9519138
4.5642014 18.1107044 16.9519138
3.8322015 17.1027031 17.7219143
4.5242014 16.149704 18.449913
6.4320765 15.5277033 11.7940388
5.2480765 16.387703 11.7940388
7.5530763 15.8917036 12.5220385
5.2480765 17.5657044 12.5220385
7.5530763 17.1367035 13.2920389
6.4320765 17.9507046 13.2920389
8.7370768 15.5067034 14.5370388
8.2840767 16.8987046 14.5370388
5.9800764 18.5737038 14.5370388
14.0640764 15.5277033 11.7940388
12.9430762 15.8917036 12.5220385
14.0640764 17.9507046 13.2920389
12.9430762 17.1367035 13.2920389
14.5160761 18.5737038 14.5370388
12.2110767 16.8987046 14.5370388
11.7590761 15.5067034 14.5370388
2.6472016 17.4877033 15.706914
3.8322015 18.3487034 15.706914
24.5079518 6.150516 8.4580393
23.8159523 7.1035161 7.7300391
24.5479508 8.111516 6.9600392
22.630951 6.7195163 6.9600392
22.2029514 5.4025164 6.9600392
14.5160761 24.135704 11.7940388
13.8240767 23.182703 12.5220385
12.2110767 24.8837032 13.2920389
12.6390763 23.5667038 13.2920389
14.5560761 22.1747036 13.2920389
13.8240767 21.9367046 14.5370388
12.6390763 22.7977028 14.5370388
Cartesian
0.0 0.0 0.0
0.0 0.0 0.0
0.0 0.0 0.0
0.0 0.0 0.0
0.0 0.0 0.0
0.0 0.0 0.0
0.0 0.0 0.0
0.0 0.0 0.0
0.0 0.0 0.0
0.0 0.0 0.0
0.0 0.0 0.0
0.0 0.0 0.0
0.0 0.0 0.0
0.0 0.0 0.0
0.0 0.0 0.0
0.0 0.0 0.0
0.0 0.0 0.0
0.0 0.0 0.0
0.0 0.0 0.0
0.0 0.0 0.0
0.0 0.0 0.0
0.0 0.0 0.0
0.0 0.0 0.0
0.0 0.0 0.0
0.0 0.0 0.0
0.0 0.0 0.0
0.0 0.0 0.0
0.0 0.0 0.0
0.0 0.0 0.0
0.0 0.0 0.0
0.0 0.0 0.0
0.0 0.0 0.0
0.0 0.0 0.0
0.0 0.0 0.0
0.0 0.0 0.0
0.0 0.0 0.0
0.0 0.0 0.0
0.0 0.0 0.0
0.0 0.0 0.0
0.0 0.0 0.0
0.0 0.0 0.0
0.0 0.0 0.0
0.0 0.0 0.0