POSCAR file written by OVITO            
   1.00000000000000     
    17.4109153128670151   -0.0000571845998768    0.0000500707080756
    -0.0000000000013751   17.4109158146324319    0.0000022552982037
     0.0000000000007712    0.0000000000010978   17.4109145569739638
   Ty
   900
Direct
  0.9332080876983426  1.0698600284475717  0.8358252287888047
  0.9343819423969527  0.9851609709544960  0.6631769009367527
  0.9079891901926761  0.9527831495658199  0.9545689639881042
  1.0393815505348629  0.6027594864878941  0.8298636933189032
  0.8576649457356978  0.7358323355988873  0.8850514231396999
  0.9218921001523934  0.8749714473156266  0.9388533778706486
  0.8849705137975273  0.8116974941660707  0.8285647638786786
  0.0541114393608120  0.8623493897565450  0.6669756840792270
  0.1869950320039479  0.9375215071292639  0.7863364226250190
 -0.0209546882938371  0.7267374361693337  0.6619776924876459
  0.0082955133082821  0.9635236938716082  0.9238831274079654
  0.1369165340886989  0.9541159432592149  0.9654233040821468
  0.0477378905573239  1.0286905625188043  0.9298153414129577
  0.0853983832439937  0.9262997292128241  0.9068121757131153
  0.7234576738038561 -0.0650348377508708  0.9381175060553661
  0.9492495222646298  0.2047999655660165  0.8681244948487384
  1.0995860243467146  0.0175135444381254  0.9895512384914988
  0.8179080972709104  0.0529791684500729  1.0195224333666288
  1.0305826090484698  0.1724105091674364  0.9752294439144183
  0.8984752241825361  0.1032569961965033  1.0138086055633131
  1.0014867205128231  0.0969448932051071  0.9487791769649910
  0.6189980542582501  0.2205100124038165  0.9367975437741137
  0.9603493068527825  0.3038255299010252  1.0041175207151753
  0.1876118385255700  0.0447383906839133  0.6704368140607563
  0.0769384069937733  0.1477645509417201  0.7002299564160747
  0.1307834668795413  0.1647169627173598  0.7519827677380145
  0.0769567514765581  0.1427580913926618  0.8194161913848607
  0.1019117089229843  0.0846107648184631  0.8792198972769655
  0.2163567984315410  0.4452499084862653  0.7972721106473627
  0.0868476577713377  0.2870997890139609  0.9414017195978285
  0.5597681777430399  0.7247732205847728 -0.0348821270473832
  0.7154108234634319  0.9588472211530605  0.0128257556514983
  0.8913979821458624  0.9184273367348218  0.0700880871020175
  0.7498003829537011  1.0529973566499018  0.1192780115350840
  0.8518559114664302  0.9710150236941273  0.1103937316369461
  0.8260429538678864  0.9461816174010615  0.1821030616812524
  0.9105127108914731  1.0157029768219183  0.2547754719519630
  1.0421039411616460  0.9460675065535147  0.2043294392053033
  0.7383547504892609  0.8156527850073038  0.1645001815340985
  0.2325803137332129  0.8948299011894623  0.0677464038578886
  0.0170001364344171  0.7544482051417950 -0.0260974257737139
  0.2372507439450252  1.0445531876403646 -0.0932051060465832
 -0.0358074307333981  0.8913560319326908  0.0472275582010752
  0.2566014465183437  0.9507477802619725  0.0103178474654180
  0.0263455192734331  0.8204482358743391  0.0611315060237684
 -0.0271366820543547  0.8233537217415814  0.2210520370389970
  0.8107895357425242  0.1291151366695852  0.1818294565651123
  0.8321569727085311  0.0477656827933032  0.0912746543402125
  1.0316377624459421  0.0955822440298526  0.0925205895784795
  0.9568246265666420  0.2317865181334084  0.1534787475404431
  0.9750243592192553  0.2062799429498412  0.2568045022056200
  0.9514543142574032  0.1203719884305763  0.2790658204340709
  1.0355116668921172  0.0805919888794478  0.1995898473595474
  0.2045540644195404  0.1109480919425568 -0.0733431799128758
  0.1002946667066257 -0.0167880038183887  0.3150613378845734
  0.1845800978220357  0.3169925541216521  0.2537697400809610
  0.1901246588583770  0.0573920429177836  0.0840931910450913
  0.1043127361870837 -0.0526878263221874  0.2419124801112372
 -0.0148483615059987 -0.0067329515340758  0.3924857054900293
  0.0331593621969928  0.0811593353055094  0.2940348440762036
  1.1057071429330589  0.3124794154406462  0.6771700641027145
  0.9793896597680199  0.2660761539578319  0.9187609008884619
  1.0497053158923824  0.4478880716964169  0.7293705221058564
  1.1406759141256853  0.3455092291006169  0.8564167542088931
  1.0399315146477097  0.2675991684471051  0.7901139035110257
  0.9893561279281113  0.4530656326767571  1.0808394283441940
  0.8789794998043100  0.1672757357064101  1.0584384584909166
  0.2072250769837426  0.3796814080285345  0.7319465493393964
  0.1655498062671830  0.4851262398475521  0.9392898301473490
  0.1636220298114881  0.3090804857835475  0.7437663538871271
  0.0837098284741523  0.4487938404037639  0.6535668253937312
  0.0958711564216524  0.5414229212439596  1.1284940868998439
  0.0276554437309898  0.4164343747264665  0.9541937240122415
  0.3666618280036032  0.1229464317311470  0.8588778887898229
  0.8256309042792203  1.0079163086165739  0.5439628027184488
  0.6147044423226942  0.9916300614166655  0.5594040416143082
  0.4751316275284177  1.0454936471596641  0.6385168481252546
  0.6125782395654837  0.9251752679291071  0.6106106704291588
  0.5858531518109088  0.9703647365008938  0.6959490690851731
  0.6433904886053415  0.9624890771100513  0.7643766627589186
  0.5054138352734487  0.9066905600665535  0.7068932551728581
  0.2320370162266391  0.6403252089255252  0.8624238893787591
  0.2940850118424023  0.4771193738374229  0.7986536624905834
  0.5500705940571604  0.8181131103320225  0.7665547633694217
  0.7495308489986958  0.7581640720896576  0.7253311735176068
  0.8013243355630291  0.6150929435486031  0.7375498623543976
  0.6420082798502917  0.7496136782746233  0.7310124313183280
  0.6788472079812750  0.8819002217193835  0.7520148617017847
  0.6350305671857177  0.6974381328442907  0.6608696839588983
  0.8364991146227481  0.7668684086984010  0.6174870229017266
  0.8755706920793956  0.1232004995595325  0.1292123422207448
  0.6286449201654845  0.2067635235212241  0.1431105476550361
  0.6844978062498921  0.2684026848018931  0.0117762002538259
  0.6824333547142678  0.1279168474988594  0.0282025493411979
  0.9160790888851381  0.4766581741680433  0.0292992551595497
  0.7545347584870967  0.5108798538790368  0.1219238977901550
  0.8568939894702595  0.3051019094867843  0.1098426263551870
  0.8978803426268671  0.3763521519500533  0.1505441012458660
  0.7992310486053329  0.4816050404543202  0.1862934476537645
  0.0806671566438083  0.2667223399850400  0.2696411112467005
  0.1233491298148850  0.2104006749274905  0.1443031086826518
  0.0800549255990529  0.2591557181215375  0.1857885993935978
 -0.0548567623882369  0.0744104144899289  0.1899208706635349
  0.1031079290576805  0.4364668251075050 -0.0913587799561250
  0.0586420877661651  0.3155307445860479  0.1243598566964099
  0.1248071278327020  0.1414602955783882  0.3303494262439254
  0.5842727798371710  0.7135807902418919  0.2255959161222903
  0.6235815388911841  0.7747852332532964  0.2210941531289562
  0.5444233009906886  0.8253089605854834  0.1582068012340702
  0.7347646567527332  0.6681498956817119  0.1364087676978281
  0.5113913360876018  0.7546868785946784  0.1537224399122184
  0.5440885369429036  0.8906893574113924  0.0783783488413500
  0.6717955724693334  0.7041325407612057  0.1038853331931895
  0.1702037631701991  0.2887704303236936  0.9356079466678648
  0.5886225380339997  0.3270887461880899  0.7994062814183187
  0.6405849578509684  0.3978427629770647  0.7433738367583208
  0.2813346221615931  0.3115386662956562  0.7711758090887305
  0.2118615512449025  0.4283727056307103  0.6482936218792359
  0.3495354682607772  0.3305986997107227  0.7076928355659096
  0.4725657033207739  0.2855887635976328  0.7724274570324259
  0.3734584353072969  0.5969703231874000  0.9082687363924793
  0.3974372117174426  0.6214690413585356  0.7410526411436772
  0.2818207784772767  0.8374245512254344  0.8532254532075610
  0.3270072160996132  0.6816451117951411  0.7797511830286210
  0.2584555703842524  0.6782343484895036  0.7339494079894335
  0.2406568883244605  0.5974232471986023  1.0359960005810929
  0.1621818791829369  0.7749562361086384  0.9571167740288496
  0.4019968939473001  0.1497017608371567  0.7192455607903853
  0.5893514202219551  0.0116953268117891  0.8763153226158229
  0.6143199760166987  0.0904646553565558  0.7598527513290874
  0.6355501778049166  0.1937673833060957  0.8419560432423576
  0.8520715766789294  0.0752308699605838  0.7987464818612129
  0.6205031132798158  0.1861266806679907  1.0030954808123249
  0.7196164744750672  0.1240827195622327  0.6261784644718819
  0.9217667373055168  0.5290769592882566  0.8921386104435307
  0.9398994226095431  0.4932568937745249  0.8046895227671137
  0.9450511476197948  0.6065182209143396  0.6952765357718773
  0.8932426148894805  0.5822763746342552  1.0339853590715091
  1.0535388065369524  0.3875721767615382  1.0355119459107742
  0.8733928773546572  0.6326166921485339  0.9732710258151598
  1.0603146485679644  0.5746841676763973  0.9159275808940037
  0.7931469784327033  0.7035606332679186  1.0187643465495035
  0.8621770920607764  0.7150338520635438  0.9791045483982833
  0.1637030327218741  0.5723973907469393  0.9143619395031665
  0.1647716290656769  0.5052979500411491  0.7953104088714080
  0.0036907165329083  0.7346967236716958  0.8500248134152484
  0.1849481067032195  0.6485282812523525  0.9484010157734092
 -0.0027954135321695  0.4974560159605591  0.9223227290907349
 -0.1251120943324581  0.8820397504620143  0.8435642648422889
  0.0197694121651959  0.6747416704699492  1.0105951264218493
  0.2145391163991586  0.4733383067711998  0.5459641601777576
  0.3003149075559620  0.5732588651124320  0.6498134895755073
  0.4127726359526179  0.6247013029993167  0.6504895116839761
  0.3864995978648412  0.3995651751527246  0.7127415858816941
  0.4043797089121668  0.5532564485388313  0.7632316667528986
  0.5916613543144067  0.1642532724884847  0.4359260438026740
  0.4575867601448490 -0.0080730298544130  0.5147354380621431
  0.1246294631987901  0.2901926832009566  0.8024344847245358
  0.0871288925387424  0.3704923904216234  0.6292139833505702
  0.8331087748610281  0.5505796841316015  0.5553823703207330
  0.7021617533404667  0.5863083505804301  0.4830447721805931
  0.7957518060885601  0.6622242525107719  0.4589278084615264
  0.6514752817962725  0.5962988461742793  0.5350531069289258
  0.7599569624451690  0.6772655443290908  0.6907890528836366
  0.5468309388454609  0.8861269000786591  0.6150942253399688
  0.7032585008275425  0.6686640536341166  0.6305673277562919
  0.7396122928807440  0.8978981198533300  0.0687647709740810
  0.8193763843569121  0.8318607964253625  0.0055225847755379
  0.8930085693695866  0.7740844917021618  0.0297347225639130
  0.9575976130118481  0.8080147645780338 -0.0236332657040701
  0.9689651444759151  0.5583930223364449  0.0102692243560048
  0.8318329891626653  0.7063198777643369  0.2224268872308613
  0.8363432360682661  0.7368126408236508  0.1428702277536303
  0.1459067303797882  0.8507492513120065  0.1774724546158322
  0.1778519678738243  0.8083243912914242  0.0171833208145856
 -0.0914353995937719  0.7569651775575035  0.1088533853471614
 -0.0358646819107828  0.6285004663526724 -0.0278994131230839
  0.1518832107117805  0.7677984862386983  0.0702935715591397
  0.2595620055099531  0.4782143763245553  0.1730642046318578
 -0.0537487561852577  0.5577605570945326  0.1759615113376374
  0.3469854791770688  0.8199540898509334  0.9286010149498048
  0.2689180205418926  1.0566068947754252  0.8466185503662722
  0.3221216389427560  1.0602804799822667  1.0315772395378000
  0.2863441615950754  0.8214948702031908  1.0223007285408425
  0.2557803585599778  0.8497633720374483  1.1189243315725428
  0.1346667267592253  0.8065866531634183  0.8258900365652905
  0.1962794047148700  0.7174651425034226  0.7849105319345394
  0.7376441677759710  0.2878901724087293  0.5032088179160834
  0.5704991848672455  0.2488994001089672  0.4456474482102724
  0.5098239495249860  0.2408713844313886  0.6675924226925751
  0.6635824558679304  0.1848059368116281  0.5869337039029611
  0.7523287276265872  0.2431169634414806  0.7007810617697845
  0.6568265520140586  0.2831587920532052  0.7881526849657997
  0.6581319249855556  0.4771526382179122  0.7778364374195790
  0.2296508472308678 -0.0173372881303362  0.7212626124219615
  0.3853998407683244 -0.0472999911557663  0.8772252585974391
  0.4394153437290947  0.1205040499046741  1.0487455290355743
  0.4315551616667784  0.2184137658188809  0.7428893447680905
  0.3333714199579745  0.1392589762700616  1.0003610499630000
  0.0320603972346093  0.0328268187588345  1.0485850630728715
  0.4074513663177448  0.1456222436426272  0.9823050520420394
  0.2552973735789192  0.1219048201539421  0.7990692211060817
  0.0804494462690980  0.2146469094831621  0.9249173954673074
  0.5867290431995646  0.6482611106562832  0.8557632185320125
  0.4508775760612244  0.4999010891107593  0.9030632527922723
  0.4409880572282124  0.5486102242524772  0.8382375173830244
  0.3700140414044049  0.5594835975536200  0.9817582946177931
  0.5288675927816583  0.5202065854167607  0.9192982630856801
  0.5837502438220610  0.5042211374963279  0.6192442120068622
  0.5887942919763157  0.6246755082196164  0.5715109804002099
  0.4115725167898455  0.8328858072664171  0.0914630254086021
  0.1291660277404660  0.8840161900613906  0.0296536472727420
  0.3352660595346171  0.8541168380030127  0.0766258446200188
  0.3454147484153791  0.9740189123693337  0.0143807479242655
  0.3856495521949724  0.9940912052571647 -0.0551319598849638
  0.3632944429066865  0.9902609847626170  0.2762305278970414
  0.4630637271626526  0.7833389127738790  0.2736247909474125
  0.3630675597433741  1.0259799020678817  0.1924286910778435
  0.2793024159826894  0.9782020518522290  0.1318820857049318
  0.1337141612293659  0.7774731175523675  0.7550614618296921
  0.0015662621936775  0.5383895289600559  0.7951913351351850
  0.1451479593747329  0.5511088655526739  0.7095223001152330
 -0.0337361214471019  0.8256374276325911  0.6427530252717993
  0.1686603257462634  0.8161447980794929  0.6205424393123057
  0.1194661470850481  0.7161829445909831  0.6492587019114441
  0.3154541342269375  0.6277552019336159  0.8702575378129923
  0.0210509807648423  0.1600184049742640  0.0521252796551400
  0.1406791458483774  0.0993401524028273 -0.0381291373644501
  0.2525515849128130  0.0175330170536647  0.0604876867993760
  0.5652964462471446  0.1714083759526957  0.1040318191204583
  0.1185871605892457  0.0652366483228068  0.1847664507047319
  0.2373868421214366  0.1207328957280967  0.1383433077675806
  0.2764884443217176 -0.0185980389711355  0.3047329855110090
  0.2920778942145881  0.4167307688201505  0.3703988986164564
  0.6211563283515342  0.4748869613158178  0.4738215325459589
  0.6169300991348868  0.4672335669365181  0.5597129859349275
  0.4852203436436159  0.3107391636245694  0.6314143795928800
  0.5917961997761095  0.3189816251545287  0.5562156702414380
  0.4478983879284344  0.3329028091472510  0.5560975530943224
  0.5128525016034096  0.4851123344509992  0.7369770986029208
  0.3230279954284690  0.3179572022220227  0.9094379308730889
  0.3081332289050847  0.4590396414940858  0.9150945335835048
  0.1294626359339136  0.4556621408665543  1.2633295924516244
  0.2886492609065400  0.3246095426864043  1.0786397253163262
  0.3164402401404569  0.1665964624644276  0.9205087262365532
  0.1738964393322791  0.2513305457219865  1.1018805680393289
  0.1954921687551198  0.3667731454904382  0.9860655577622852
  0.7712706570864494  0.4103594048851358  0.8038143128843749
  0.7057416668544385  0.4068808417382285  0.9876386211663523
  0.5910802946835341  0.3309039252503480  0.8801208993122304
  0.7621288466404654  0.5215878247884146  0.9249178226485305
  0.5899797502662926  0.2529072891890575  0.8841655530375294
  0.4326763526849158  0.4407924305430934  0.8473782761304708
  0.4690446869202784  0.4144915070173417  0.7842693491269735
  0.5616388758426379  0.7059962118401035  0.5533273720222714
  0.7515059436040497  0.2821800168895891  0.8062046472657842
  0.4411971232826141  0.4224124128711705  0.6613180522894725
  0.4717668235971600  0.5653310419217159  0.6320861961289276
  0.3937387353603165  0.4085268776448865  0.5942680768100578
  0.7845846479284778  0.5847149964669817  0.4937345740844192
  0.7648953015746386  0.7230933476466459  0.4382756461338959
  0.3541739580878291  0.7568369379130133  0.7949686003743537
  0.4443737104147754  0.6826169901737661  0.7220506133670469
  0.4901453055623465  0.2438449523499450  0.9228029501453319
  0.1707873652928036  0.4770505899766604  1.0310208872100488
  0.1355941097410564  0.4078817908460174  1.0361626573963223
  0.2247068060849748  0.4168870196567090  0.9260622665726354
  0.3790064234113876  0.3519441722008762  0.9552819842705038
  0.3796499570153652  0.4227836978594545  1.0283954481722777
  0.6448992536906117  0.5370957737288030  0.8999790509234643
  0.2350956802385792  0.1840776531518511 -0.0845730663591743
  0.2258449586945827  0.2379302920471128 -0.0355085300456190
  0.2829665871290331  0.1986123958082783  0.0307512220432501
  0.1431887745088790  0.1413142311913415  0.0266975440630928
  0.3217047781032693  0.2604583189149023  0.0591511476986759
  0.1949134022977447  0.2174789755694836  0.0368383960462292
  0.6160706380549811  0.3557969862946341  0.1948034645008917
  0.3854119173868608  0.2916079692805061  0.0038636951653969
  0.2383168330543023  0.3737687225320621  0.0491054606124676
  0.4206110068947061  0.0708193535112478  0.9092687078986142
  0.3699927129106158 -0.1110439499983770  0.7452830672985896
  0.2910169203189452 -0.0942041499133869  0.6409212824862773
  0.5092405150053708 -0.0654791385852107  0.8042888180860465
  0.4851802895823708 -0.1394409290080457  0.7826821557648405
  0.2341363922509162  0.2503858024913267  0.7261697254564525
  0.2102216914845663  0.0937594898437439  0.5995172661548827
  0.8917039893095322  0.3967993120899447  0.5282786322265857
  0.7601697425199141  0.3543950419383435  0.4862606720128911
  0.8558974501941012  0.2017345227028360  0.6220015500874242
  0.7602000659219248  0.4103030286027134  0.3450165007052068
  0.6768694578338191  0.5126890724187325  0.3893754934016210
  0.7479962729737676  0.2187737984478255  0.4668749446399524
  0.8278205631307141  0.3488018348964722  0.4410809097639801
  0.4474456406537221  0.3574527156332375 -0.1063460578517331
  0.4248546881255110  0.2274921818399226 -0.0431596374754331
  0.3530998830677452  0.3715073691344752  0.1042883397967225
  0.2067314900141985  0.3149254538628942  0.1289731245157559
  0.5108157123163218  0.2768682931869779  0.0866848978422415
  0.4844474099419117  0.1622874374753498  0.1629655296250846
  0.4463364446615806  0.3128352609547419  0.0421911358333061
  0.7258445177956242  0.5965791894071037  0.8008783187111145
  0.5240706074723702  0.6598087344911683  0.7177985243522466
  0.4724625889481909  0.4897393198489473  0.6540532744067471
  0.3294899284210788  0.5257570158788415  0.7452076473040152
  0.6427716358904708  0.5692084640332882  0.6662758534358102
  0.5263494982110217  0.5591217481233548  0.8036053290498011
  0.6885487290617528  0.5338187452480436  0.7313249730000994
  0.5319809388950176  0.6052621178942621  0.9094164493755450
  0.5644693100188665  0.6179357143584546  0.7679087353463063
  0.2579605441786345  0.5140647273543396  1.0429873259756925
  0.3775703071473766  0.6296033308036580  1.0284258400371229
  0.3211921397792701  0.6893359964034129  1.0129973128929974
  0.4596842911293004  0.6494831003896068  0.9291131713278263
  0.4499426976176005  0.6199603664624344  1.0050685959162351
  0.1705701696863701  0.5979199103589944  0.8264013859180145
  0.0449723561653286  0.6713826085004879  1.0951740505665255
  0.0680519005674757  0.7684159970489109  0.8666083455171628
  0.1778922153881892  0.6332098225037682  1.1649152243741014
  0.1023945764760788  0.6064639743880226  0.9687314505740390
  0.1577327262644730  0.5416131063112745  1.0614830343801163
  0.1133835579457537  0.9044331789724652  0.8283243047453716
  0.0756851302432092  0.5926967258397752  0.6947937266159715
  0.1004844585076538  0.7381120293341816  0.9476463851154515
  0.5756314556390574  0.9233119637826026  0.8621545071456855
  0.6841059001378473  1.0428584629991855  0.7591627517212779
  0.8091460801219498  1.0020057600320007  0.6650586278290669
  0.7268715894682704  0.9890108072803674  0.6400495366891924
  0.7522667614966918  0.9877742649243639  0.5550163747863561
  0.6923584941872476  0.9164764734356406  0.6474531288915424
  0.7609492489159871  0.8568006208242269  0.6149889254156269
  0.3487167568616944  0.4401843025141815  0.8376160825991371
  0.4182938779073882  0.1336928772043258  0.7957291438670039
  0.5143046184836210  0.1728350660447807  0.7957603993740224
  0.1888931381414868  0.2288031764810637  0.8393768860898133
  0.3021228735706381  0.3295051669237661  0.6445661279497589
  0.3194582557932796  0.4339639670442544  0.4391501240325971
  0.2947051782200857  0.1101544128088304  0.7389944553126206
  0.2065171030129837  0.3787609171731859  0.8594022208594150
  0.0253222786136087  0.2114360496420268  0.8445301817020269
  0.3265542396245421  0.4876060480650032 -0.0134115406576440
  0.2807798556499893  0.4378364339575889  0.1120839197055778
  0.3230338639810467  0.6265298680104920  0.1239630193069441
  0.2402269398632050  0.6439261825852377  0.0986683576536074
  0.4377243547250463  0.7687982675291802 -0.0542368163849835
  0.3227280017717917  0.4956106196044834  0.2044240044953679
  0.2428717380198271  0.5433740054966520  0.2666933233629662
  0.2258383956074674  0.7204463651468415  0.0959271381007377
  0.0893228361370207  0.7454935934898058  0.0936628320257749
  0.4784362196220053  0.8504306178167547  0.0450653906102393
  0.3792821629686073  0.9323773749431253  0.0871279224647488
  0.1017416235789155  0.6168797888153512  0.1458129805007063
  0.1893955919812964  0.7055556110917492  0.2222994178262808
  0.2797623017796966  0.7439629688167083  0.0516757953551234
  0.9674253485827699  0.6575035130768319  0.8794583131824363
  0.8450067102383867  0.6019305545943210  0.8933323267949460
  0.9991655382598372  0.6718432182662580  0.6024348878325768
  1.0603690488029436  0.7488858635734278  0.6983499290564649
  0.8857537510394532  0.6503787303979613  0.7615307209767515
  0.9067522263546869  0.7318046816857576  0.7180220535225474
  0.8777938067319000  0.8114292853096984  0.6825576430699968
  0.7124962337856193  0.4024819919318017  0.4176194287276202
  0.6112734772216550  0.2986196279627537  0.4878241295061301
  0.5441491909519650  0.3448524947321302  0.3149241881191243
  0.6945030103614596  0.4829776005212794  0.4615779134740688
  0.7506199139837664  0.4325899184476107  0.5014401346537777
  0.6290586673547799  0.4854891447154160  0.3277721611969051
  0.5764444757855925  0.4423509967805575  0.3802136462384224
  0.7525413373422120  0.8793542106930693  0.7839871392977813
  0.7935155713818747  0.8104035050099671  0.7988321052436099
  0.5507527696229200  0.8844989373273453  0.9441519700608100
  0.7811602100155315  0.9581551464590875  0.9094157510088685
  0.9783598728163111  0.9654225833132070  1.0035171225482864
  0.8342703096657254  1.0015516483084796  0.9566410905233352
  0.7583533938471142  0.8244123852276978  0.9354977541021595
  0.5970953941630661  0.1617773547874732  0.7848849615671930
  0.7159419798241402  0.4308979240039706  0.8439861398835559
  0.8423554148526716  0.3807532477534765  0.8471077976711409
  0.8293117838151456  0.2943956145695273  0.8369983356777799
  0.7335296713844370  0.3801873563463109  0.6251153208392286
  0.8536021433765631  0.1278016982937062  0.9301477037107522
  0.8394844545431314  0.1610275209061426  0.7797190830759887
  0.9227656217359099  0.6352119976296343  0.6095274897268453
  0.7010892914954686  0.5812340954379659  0.6117603800176135
  0.7274584142254988  0.0585266797178318  0.8474575612477180
  0.6450857813149136  0.0536855890217290  0.9844124235452427
  0.5292003263110514  0.2068094958124966  0.8714008186016790
  0.7393093677198362  0.2307586959887581  0.9485603882235950
  0.8028256188808661  0.2496218371700474  1.1358731166009186
  0.8241172879268595  0.2747380574263871  0.9369552329172879
  0.8046539444078219  0.1955289566222771  0.9659036677365831
  0.6118362971523243  0.8378836751125847  0.4592723513713853
  0.4986615224556219  0.8750686872623541  0.5478997253721700
  0.6162466691366476  0.7623242211588025  0.5945210852026689
  0.5829469255466235  0.8191822496116792  0.6504490816964330
  0.4933998926511132  0.7397524556823568  0.5779569416435069
  0.6202085792352946  0.8189594316734676  0.7215612234178388
  0.4334264560691882  0.7961378985060934  0.6639904138431538
  0.2810918128836664  0.7423869568041298  0.6175292097622112
  0.1262993845649965  0.8925535616763419  0.6500759427955431
  0.6292994208152094  1.1253604174018494  0.0900758057932235
  0.5748258941545654  0.9537155246519755  0.0011739325182043
  0.5092114174830670  1.0186941923376724  0.1892356751163527
  0.6685675357156641  1.0227413128255896 -0.1017113834444385
  0.7017574175617762  0.7722684707533977  0.2411807967856432
  0.5065863906382382  0.9886716389381073 -0.0254039925161190
  0.6246391463295952  1.0379709098324634  0.1135957883547369
  0.4384569276687695  0.0673807073750298  0.5404387979439967
  0.6888370143014418  0.2214156852546643  0.3412623230260756
  0.5328633862837124  0.1238814330154423  0.5112925198629138
  0.6374692024615826  0.0410463628132113  0.4090637118384626
  0.4163633588349021  0.0176109611677109  0.3219411843703071
  0.5841803537368373  1.1461893416777811  0.5897943826610622
  0.5386159023699308  0.9902268309507611  0.4981989794226168
  0.7951869149569422  0.1825140089227809  0.0658768363129928
  0.6327033939894974  0.0531280449050855  0.2693867833920618
  0.5067896611172968  0.0638286353452328  0.0306519380015940
  0.5482253789056151  0.1760674782216985  0.2502601848459358
  0.7658309240387426  0.0601950376701935  0.2035726329162411
  0.8364084439761232  0.0040405445819307  0.2346522931412738
  0.7061882584963008 -0.0479537297696252  0.2947478909513968
  0.9220595134323666  0.4456638395735225  0.5772425468388390
  0.7633776679185672  0.5172154516952087  0.6112582268386748
  0.8228189602062266  0.5066279712045324  0.4605337369775803
  0.7061917755195483  0.4613825241547719  0.5679615082605148
  0.8802745723567467  0.2430215800433104  0.8029129464450445
  0.5990496850376124  0.4128371411284605  0.6670233255315281
  0.5220752512606841  0.3791699985710701  0.6645070900008576
  0.8783746275078933  0.3450851043879523  0.9797852102102403
  0.8622436414873276  0.3874456008023192  0.9189969884013893
  0.5309340247741633  0.3425639668231917  0.9202943260532402
  0.8331366033440132  0.3429863929011237  1.0584513298760574
  1.0045965044639786  0.3398749831458848  0.9095729676935962
  0.9247935562194302  0.2499067009145489  1.0738127634857755
  1.0103586958213218  0.3493847203539420  0.8350654268929072
  0.5383664244389778  0.2080561275682552  1.0339457758169257
  0.8889785417052055  0.4568673371690646  0.9458695177064538
  0.7595179166576395  0.4872225908165773  0.7027804297881602
  0.7333277853809653  0.4484773308261912  0.9168499644479884
  0.7805394741424601  0.5812251521034579  0.8722503422574903
  0.6713232085057592  0.4890868908280498  0.9937553416877524
  0.7354652935700438  0.5435624187414232  0.9968072855289193
  0.7361251922866900  0.6715663407792656  0.9635536949614705
  0.6023282465856713  0.5176646669291971  0.8312653142587157
  0.5056230670261720  0.7630630467834459  0.6549861360065778
  0.3070583740297492  0.8446578841619720  0.7614137891111403
  0.2241268427785421  0.7430939828500893  0.6710571433211937
  0.3503927530147946  0.7285608684612550  0.6338265312454013
  0.0737704866340399  0.8851008567420362  0.5142602852927283
  0.1202444011375978  0.8197878527942362  0.5421648288762130
  0.4698050517478871  0.8080725478936760  0.5321550719621304
  0.2191596682677695  0.9737875208605219  0.9444185704088949
  0.4133301678811547  0.8727513792346447  0.8980818287073791
  0.4796428866614976  0.8909783118962341  0.9393353304826035
  0.3186995851381661  0.9717230259324470  0.8488254908174424
  0.4243057449767421  0.7482219283465182  0.8278215106740134
  0.2518847276042944  0.9133451253654208  0.8484194756735081
  0.3876505442063430  0.7424060390388304  0.7302490137315375
  0.2149541260877494  0.7810361546595080  0.8593228789903621
  0.2580515619857316  0.8419397335907195  0.6875622950776961
  0.7617995173127496  0.1023444891696298  0.0548080034014707
  0.5664040002298664  0.1021787910553092 -0.0163422315160316
  0.7859895265804211  0.3982280926580190  0.0527732517424344
  0.5160297941323224  0.0427131735535595  0.1051408219779970
  0.7526266735937178  0.3110030289332743  0.2190242405911486
  0.6642307850706775  0.2952725282354023  0.0955640850605664
  0.6076334301620936  0.0118060095933643  0.3378902036081981
  0.5202293061377228  0.3818377182515472  0.0125451439565998
  0.6518082020609279  0.3481824700015411 -0.0133987659666176
  0.8536232224487198  0.4494669958116825  0.0483076171968265
  0.7111621518808219  0.5895547076012623  0.1485480902554773
  0.5929953610587514  0.4036644434121525  0.0466603714240628
  0.6283194161848341  0.4758065945329326  0.0576611270486149
  0.5726337024813875  0.5976606367072095  0.1616084631074096
  0.1574348278453200  0.3654161346117693  0.5891433591956695
  0.1747675433584706  0.3928192450158619  0.5196521726173361
  0.2746191403401801  0.3224766908200036  0.8558933833935342
  0.0421824136296715  0.2783563701486601  0.5571246318098421
  0.1423650622067186  0.1325581631987230  0.5664905644434581
  0.9262245142668579  0.3714102160931981  0.7846745858328690
  0.8510433342681871  0.1391380952961497  0.7060181503252435
  0.6355405744235714  0.7182129158427057  0.8725525126942572
  0.3550562991817036  0.7517242830283397  0.9609019135391027
  0.4778693451131233  0.9530977535319447  1.1250963614135867
  0.8877922708962429  0.6612176365136463  0.8521905796949723
  0.5796166602179569  0.6660405305041674  1.0058054716572524
  0.4507007758976881  0.7106677837975607  0.8877011610102675
  0.6547903259496148  0.6294345403169465  0.8008236386019904