SYSTEM = Amorphous diamond
LWAVE = .F.
LCHARG = .F.
ISTART =  0 
NCORE = 16

#Calculationaccuracy
ENCUT  = 400.00 
PREC   =  Normal 
LREAL  =  Auto 

#Elctron density
ISPIN  = 1 
ISMEAR = 0 
SIGMA  =  0.05 
NELM   =  40 
NELMIN = 4 
EDIFF  =  1E-03 
ALGO   = Very Fast 

#Atomic relaxation
NSW = 50   
IBRION = 0 
POTIM = 1 


#Symmetry and temperature
ISYM = 0 
TEBEG = 300
TEEND = 300
PSTRESS = 0

#Ensemble
SMASS = 0 
MDALGO = 3 
ISIF = 3 
LANGEVIN_GAMMA = 10.0
LANGEVIN_GAMMA_L = 10.0 
PMASS = 1000 
MAXMIX = 40 