POSCAR file written by OVITO            
   1.00000000000000     
    16.9598116678790696   -0.0000571468831073    0.0000285149386155
    -0.0000000000033284   16.9598136259861150    0.0000127651413675
     0.0000000000023572    0.0000000000023090   16.9598120989539858
   Ty
   900
Direct
  0.8961496920508718  0.0448432323483611  0.8468632861023950
  0.9275171624600911  0.9847854465067625  0.6831152494315070
  0.8974059302717681  0.9435723579484391  0.9515040505456832
  0.0808343851267797  0.6005469001380525  0.8597006402332878
  0.8535890957598259  0.7278583175930455  0.8840993214121637
  0.9220317095782106  0.8742573919486301  0.8992139837719391
  0.8635981408498530  0.7904368537485672  0.8167951863606620
  0.0002000876484182  0.8761232618883615  0.6638269845109278
  0.1956682260757552  0.9516455494067693  0.8155375036720049
  1.0033578416609827  0.7471928211484615  0.6549992990782145
  0.0164369011502836  0.9711643796725374  0.9067863148442581
  0.1395071496943810  0.9570725022807868  0.9644964039843614
  0.0332354328167541  0.0557350597923584  0.9225850141162155
  0.0876035708366810  0.9150499363611228  0.9043974533596608
  0.7074216172654204  0.9660162079774600  0.9334841445252272
  0.9362281112837458  0.2004794748425714  0.8653001459501101
  0.0934984645453239  0.0326275927727351  0.9901442587931708
  0.8319073415750609  0.0599424378777926 -0.0287845747435610
  0.0133607678132051  0.1613643479636526  1.0093717949044980
  0.9023498352019861  0.0948639284642497  0.0168240071603225
 -0.0328252790604514  0.0997495916425048  0.9583701035701168
  0.6877868534652924  0.1759946238133156  0.8653073749741894
  0.9040471897265684  0.2971447362497888 -0.0159303508825984
  0.1810785376390713  0.0527308173884923  0.6562338137568482
  0.0973695890301320  0.1673820376835712  0.6907339820887590
  0.1496230033095146  0.1076880012101197  0.7233867334167468
  0.1104718822947337  0.0629338902352972  0.7911306962003091
  0.0735119866042477  0.1105462791152698  0.8677718108639765
  0.2173806178781460  0.4305097429948366  0.7868821621228648
  0.0690158221266753  0.3015670641045982  0.9718947239368244
  0.5985590420107150  0.7741504961254556  1.0102168067596566
  0.7115292383085969  0.9779173361806111  0.0217999055075513
  0.8739631879719643  0.9136572212548768  0.0325707906429281
  0.7695536517294908  0.0867430605677458  0.0882758630310820
  0.8487863393702725  0.9810757169413378  0.0805269290757681
  0.8164504469719441  0.9572384757808440  0.1632868810783616
  0.8927742332059232  0.0327181293921184  0.2583304303454154
  0.0038969564730282  0.9993446231476379  0.1713064260302667
  0.7624821089301922  0.8352313879761611  0.1909910648194175
  0.1814540262782935  0.9699427823671536  0.0836353059728159
  0.0283503013961500  0.7886713796013708  0.9892000955113445
  0.2088438424128590  0.0631392219032034  0.8934196932965028
  0.9577377909594502  0.8745469581885276  0.0274023187410404
  0.2824029156358026  0.9735599671609597  0.0113236601907298
  0.0200640013767883  0.8273243291927111  0.0694701213149613
  0.9907340375956463  0.8168228121598561  0.2094616241373515
  0.7753810455170961  0.1560282453081440  0.2152976652362064
  0.7811177885925560  0.0246837361241415  0.0362569047744305
 -0.0181288918994391  0.0526726567014469  0.1017243365917560
  0.9241177890868507  0.2259052387888739  0.1085791439285746
  0.9523520425529752  0.1809371857899892  0.2232526268373295
  0.9359691239522708  0.1121002708110792  0.2675866278333978
  0.0525571679088919  0.0539483023716068  0.2162189036652960
  0.1474047418116810  0.1319888245380711  0.9052241856876171
  0.0944423623456483  0.9830771772811908  0.3219074668854960
  0.1888345084919562  0.2969943097683969  0.2632791052103230
  0.2544171451665058  0.0939240935483882  0.0845571991831258
  0.1097794434089469  0.9995441946496704  0.2427286172938846
  0.9483070369075627  1.0001116046900393  0.3857998596289464
  0.0196557113751762  0.0843312569328010  0.2861208861071353
  0.0744188753312815  0.3002567042229747  0.6945078548535386
  0.9528397999625424  0.2666070495576398  0.9266196547085397
  0.0383998868509618  0.4859899550804398  0.7383200049609975
  0.1491944865595059  0.3299871107886984  0.8662581713758789
  0.0528765996830568  0.2442230476989422  0.8181797213346796
  0.9505624315701596  0.4482167931727518  0.0647930651871028
  0.8732478953338447  0.1676018629626800  0.0685730743185245
  0.2045509234629666  0.3672674073443692  0.7262277550445684
  0.1375505697146126  0.4686859700671464  0.9263934799623782
  0.1306932661823546  0.3256158449182867  0.7526964499299604
  0.0649187857825199  0.4493631249156379  0.6642404447032489
  0.1084200917896173  0.5616646119313411  0.1250677880162639
 -0.0065476106278548  0.4198548290605135  0.9375824199160083
  0.3368368810300950  0.1257094037400888  0.9107350467697521
  0.8284082845454058  0.0134114121999998  0.5430825787958078
  0.6075337907436742  1.0072640278427056  0.5415867258512460
  0.4524158416703049  0.0558922690287088  0.6333966554349826
  0.6197570745480298  0.9209189530697367  0.5594836026807561
  0.5578553441440410  0.9302948538482771  0.6678850706110149
  0.6417270497284985  0.9335368350674221  0.7085555886273810
  0.5010471833216774  0.9170597799723745  0.7311942553976152
  0.2165435674565089  0.6172440071672659  0.8800584563026010
  0.2984842063431096  0.4318376912862891  0.7832856653710133
  0.5376404475424841  0.8032627440544721  0.8064025398504999
  0.7411422426937880  0.7526238858532815  0.7301516234186359
  0.8245339361690468  0.6417693596922514  0.7224321115620007
  0.6572791892065531  0.7398772566799369  0.7309781393533282
  0.6576965046039804  0.8763331511746261  0.7676452414656696
  0.6451995486956822  0.6968249089903588  0.6551114984867440
  0.8304754968472707  0.7600533117314773  0.6270700902998576
  0.8492301076480013  0.1042624121689470  0.1216673322639464
  0.6339786284874044  0.2151565873253451  0.1445049354012079
  0.6715429062021888  0.2791478355607612 -0.0197360676145981
  0.6453290061870238  0.1528631269260867  0.0100322039700620
  0.8798588652494038  0.4510032186170089  0.0189939461908796
  0.7256004962857603  0.5074914230669403  0.1214139488852513
  0.8425006908516330  0.3322151717725837  0.0926382275686188
  0.8584089775424434  0.3726658610580527  0.1659977195886627
  0.7555903353397541  0.4738187754020560  0.1992951732981019
  0.0778441391137398  0.2431438604874216  0.2341894385203522
  0.1305871673880714  0.2190780479051247  0.1048098768854338
  0.0642077939201451  0.2492706639833361  0.1497948254620156
  0.9010723741084505  0.0473472786377094  0.0889391882994192
  0.0560474788907400  0.4739188819002816  0.8954565548604085
  0.0544234722657699  0.3285494259492397  0.1255433382503371
  0.0754725762381389  0.1482328048963825  0.3175892219297859
  0.5800612642160603  0.6979737876616788  0.2389656868092130
  0.6308989906904650  0.7434984683729792  0.1901214953206969
  0.5782216271617191  0.8092014909712317  0.1753570583560032
  0.7163150582545765  0.6537731251719350  0.1427403840498983
  0.5031530258398740  0.7716842308279989  0.1464089103762495
  0.5329250173908709  0.9221985670703929  0.0897603871060703
  0.6545472761247513  0.7085993226162310  0.1134034518953531
  0.1456820835717950  0.3084038674318572  0.9448245613047177
  0.5897470841061411  0.3515848494933711  0.7979812111905010
  0.6373732899645509  0.4153549388287089  0.7673655494078656
  0.2781791010905383  0.3111669974623524  0.7393157175652710
  0.1945220714369090  0.4124778624818947  0.6564477635479199
  0.3570537019299917  0.3138010463460083  0.6954417118388003
  0.4893231991792801  0.2739010834265274  0.7400910924716968
  0.3712726126091952  0.6196411648080862  0.8594413653966898
  0.3460288813669500  0.5975743650695298  0.7153228345704762
  0.2767608059739619  0.8578036216084125  0.8653711241591838
  0.2943446323004364  0.6690085833573390  0.7631691468154805
  0.2218194220284852  0.6796172195725612  0.7239494259079666
  0.2027134853044981  0.6052275937272673  0.0273375042638325
  0.1612801942920487  0.8006025329412130  0.9418768833875570
  0.4001743570360471  0.1846197498548214  0.6583798276315260
  0.5962683988851850  0.0286671720644964  0.8706831607829626
  0.5876290745504187  0.0464537924846844  0.7829944959297889
  0.6174584500578797  0.1890252672587187  0.8225201933063616
  0.8261610089074545  0.0572523583227423  0.7833585327776670
  0.6016328972935794  0.2234159368141806 -0.0084951293566533
  0.7088301838109436  0.1333923162147223  0.6543482012132312
  0.9143631021018525  0.5233501887749945  0.8884177161048720
  0.9433356096712889  0.5177613364734116  0.8098185546231468
  0.9441603836840049  0.6093251731316872  0.7059254972837296
  0.9193882636957572  0.5847288458911989  0.0504300809949431
  0.0048587519802313  0.4060887259222883  0.0225774045769937
  0.9152024819158234  0.6304262610281446  0.9778182958081454
  0.0485443553181084  0.5644448100653561  0.9290677406072048
  0.7808133747691075  0.6808372051531201  0.0021472485844906
  0.8616841748892216  0.7003298857030846  0.9736395520928259
  0.1951871261051320  0.5278297069435399  0.8785488009002793
  0.1691610174055930  0.5005845615062476  0.7950581270292664
  0.0202920968793855  0.7387487803060035  0.8247156156695116
  0.2162075412083690  0.6607001264908448  0.9607174604594085
  1.0743343270432053  0.5458394663807425  1.0068949883666001
  0.8713981001573167  0.8704965790665423  0.8339455309320284
  0.0591236452800385  0.7033152601907001 -0.0118316314561328
  0.2067783447253973  0.4616848503047057  0.5389811905121968
  0.2880785009489362  0.5648789016778074  0.6677196197093771
  0.4153845380601927  0.6195575106184884  0.6655919128377151
  0.3973176565650965  0.3965074846948480  0.7071873753198061
  0.3748335171735370  0.5183557669288706  0.7519542319561578
  0.5724044424968365  0.1711110972559088  0.4510082042395564
  0.4609215066017206  0.9960796687203680  0.5163451951467186
  0.1360621562340610  0.2622248580911576  0.8161359528028235
  0.0730296941414640  0.3634914419482326  0.6402338236860687
  0.8182261056333502  0.5486233767437139  0.5575096472986399
  0.6998980956394885  0.6344481283308829  0.4632651069733117
  0.8229468990643896  0.6595617176411420  0.4534970330725068
  0.6537046591733126  0.5987588516218424  0.5325549036149287
  0.7526283029758910  0.6713798513036832  0.7214261773463546
  0.5590375776259847  0.8772873680958457  0.6047884484121493
  0.7149455110554866  0.6563082036954225  0.6430571432175581
  0.7283762669409228  0.9059833228588980  0.0680472224766950
  0.8006412822720789  0.8126607609728164 -0.0070465043462168
  0.8792783328305767  0.7736933201663910  0.0053332578329340
  0.9439243921126833  0.8151060774496384  0.9696212722059544
  0.9977858944770680  0.5277240303083164  0.0553341804428419
  0.8292657462398680  0.6945368802649030  0.2042396285327902
  0.8529637782946887  0.6838341075653110  0.1238346922017115
  0.1308977951609949  0.8659181605996381  0.1682132976208454
  0.1976634980644545  0.8332745614026679  0.0154732217280062
  0.8851759624409200  0.7617804756054007  0.0974713022226228
  0.9989334794325961  0.6469008405305262  0.9428618237584901
  0.1784662941299806  0.7598050023905135  0.0562850453294883
  0.2462421322003353  0.4749869532448821  0.1643604035772863
  0.9977136908493254  0.5400683177834360  0.1937703979325272
  0.3228655538298145  0.8345901473072327  0.9342107519156824
  0.2910765530948601  0.0690388695123221  0.8680062104902557
  0.3414417422205849  0.0876748436496398  0.0486274597866095
  0.2899436938684846  0.8342479044782281  0.0138579550575818
  0.2913027400783628  0.8972327351312420  0.1375667934947347
  0.1535796001024472  0.8130920782338995  0.8145651865564475
  0.1486497972712646  0.6625764316164282  0.7660089378452181
  0.7179489218855686  0.2813706800332252  0.5261068243554733
  0.5726306068132936  0.2556956381287764  0.4399029204442548
  0.5434282680543226  0.2397941925825577  0.6727634659266717
  0.6536125762102847  0.1744767757903815  0.6000921957698218
  0.7525504287091900  0.2631719108855484  0.6993945912405961
  0.6669244453134437  0.3349205691112158  0.7618557421430496
  0.6747466527506157  0.4876949931278959  0.8034125254661417
  0.1715711619255137  1.0282625278817132  0.8302338913599805
  0.4035711265943966  0.9641423164460824  0.9023260557906252
  0.4733136193566360  0.1612680744207577  0.0357114051156538
  0.4148972577492744  0.2557388373630529  0.7072826497760033
  0.3111000838169385  0.1368809698975932 -0.0133371870243895
  0.0231544653391752  0.0013228836950953  0.0411186169980024
  0.4563545264494966  0.1719306997747235  0.9574564785927598
  0.2913628730329607  0.1255599227433481  0.8038332566254138
  0.0209997484567294  0.2280302588604630  0.9627440418848691
  0.5097295302127146  0.6706946294421303  0.8511177080505895
  0.4663472998248514  0.5159774933442314  0.8761161714117800
  0.4879423013288159  0.5539611020587818  0.8044232084051691
  0.3950982877749664  0.5643597968190407  0.9150669182749772
  0.5175638760564545  0.4988045597496329  0.9409680818541514
  0.5806221690064606  0.4966052348999894  0.6602440298142906
  0.5733906486448693  0.6226500966308831  0.5664573242729587
  0.4438690822406023  0.8299998777792982  0.1147125817801694
  0.1521873048152141  0.9062900271424492  0.0342110418874692
  0.3163866272093586  0.8964945652104305  0.0583828245439138
  0.3625955491210308  1.0076448780421638  0.0178845700873057
  0.4203053218974190  1.0222012869840471  0.9623023417141555
  0.3538545829921231  1.0071466287062552  0.2625381436264025
  0.4798541069768378  0.7958523217547274  0.2738470724409570
  0.3608164727210385  0.0195453567977119  0.1806517986064557
  0.2810635777476566  0.9803511923608513  0.1570723396778821
  0.1808748331566089  0.8182576242872444  0.7237475191597047
  0.0091565239891202  0.5984318369934790  0.8150708657035164
  0.1620127808866865  0.5479841849328483  0.7183421792781243
  0.9486636174384480  0.8152648583186668  0.6393249037572855
  0.1323516504716120  0.9148622763699972  0.6253774956002700
  0.1339255019194059  0.7281619497614500  0.6387106030489128
  0.2933884627844997  0.6297579423703394  0.8384181349525066
  0.0178762489375485  0.1310141282612072  0.0913220114075764
  0.1413849244695995  0.1139422942112345  0.9898342113912502
  0.2500664265865682  0.0108069895950771  0.0819398219679794
  0.5509986778494517  0.2083923176397909  0.1335987389429329
  0.1338572335309123  0.0593366255294559  0.1887687472622506
  0.2401309450463870  0.1346505122327747  0.1562927623936034
  0.2668750361233251  1.0138825917290122  0.2851907022759755
  0.2623086895297367  0.4258753855846498  0.3617509328879945
  0.5890130185146394  0.4741720199544862  0.4944612457853961
  0.6069401285824405  0.4590090361450033  0.5794654866086754
  0.5117912104852269  0.2920748639650110  0.6049791742032808
  0.5939077859915293  0.3079249270192251  0.5740295011819300
  0.4434184605334003  0.3119016252723716  0.5563856039424392
  0.4622734537332860  0.4989059025099783  0.7452629237699310
  0.3636456894812354  0.3250510460058735  0.8587207891486188
  0.2554296087579248  0.4956182086179369  0.9358614108584022
  0.1339936760200946  0.4665308925315968  0.2723317901647430
  0.3272296024710351  0.3261854111342322  0.1114574990927974
  0.3258764775615992  0.1915367915052726  0.8522370481957764
  0.2037986824500725  0.2672763540051623  0.0883158639751380
  0.2212282467868603  0.3553803943831862  0.9785709553839298
  0.7973498654475851  0.4142004549699425  0.7767602682180698
  0.7029798637686622  0.4092902807651226  0.9556624450271193
  0.5757764516286343  0.3216655739205495  0.8809854706476030
  0.7682934276882573  0.5387968140796821  0.9173801359451695
  0.5660755165098978  0.2371558111611097  0.8723391625429693
  0.4290625863302551  0.4406001537254900  0.8464739313224640
  0.4558902172079552  0.4149927930484015  0.7704976146576974
  0.5547491324219457  0.7033490465844378  0.5447756065710865
  0.7420563074794874  0.2872519601162418  0.7851828253337716
  0.4518125320607259  0.4160214348247119  0.6424396736763559
  0.4625771592824120  0.5621458951492382  0.6280047458233886
  0.3996451254034586  0.3889293954257405  0.5768324620959363
  0.7821042138166117  0.5934862667612626  0.4820109870290117
  0.7245664366357799  0.7087484965037106  0.4318806007126182
  0.3371855154716573  0.7484256905260774  0.7820062612701020
  0.4433382162776947  0.6675956729058647  0.7325622052704603
  0.4405480122960399  0.2494819940604600  0.9390404391630729
  0.1415485813485653  0.4855915258842211  0.0118559408891568
  0.1314578048158725  0.4144295827193785  0.0637182681098925
  0.2214844641874704  0.4172799995375003  0.9227716004052384
  0.3623634929532323  0.3571241905004231  0.9462055726202100
  0.3748217529570784  0.4429657336697875 -0.0267646105619317
  0.5978140717433562  0.5052381063425265  0.9247222352228157
  0.2538916885555311  0.2338015083006889  0.8776242620025788
  0.2201538514691154  0.2684709548602024  0.9479448574644503
  0.3078665556063719  0.2125770766682675  0.0204412616124608
  0.2221294857661449  0.1355756056820185  0.0138846659965157
  0.3547357300859846  0.2618702738131641  0.0620979607502877
  0.2290582753775689  0.2244645317071142  0.0208057539128207
  0.5784657213360401  0.3772053113414420  0.1731437513470380
  0.3971005425514808  0.2950963691825413 -0.0004568405099387
  0.2173249037279487  0.3914764979616475  0.0585098810002912
  0.4178796245526338  0.0960392676538435  0.9190071923737094
  0.3713033861325646  0.8926669696850842  0.7693624111502949
  0.2931871974231169  0.9214511964369835  0.6399373809330081
  0.4808017773851377  0.9608498306330781  0.8541072940350120
  0.4898747850246550  0.8731105314822108  0.8088921754672556
  0.2566555811344251  0.2253934795714613  0.7177615143783317
  0.1953726384120411  0.1091660344177997  0.5925995689792534
  0.8822303034500036  0.4207199041450535  0.5105836234407507
  0.7696783427774839  0.3354600752607894  0.4917184488239805
  0.8291891460739990  0.2016703064412647  0.5912881268047606
  0.7669618228808729  0.4133430172408468  0.3671557365107172
  0.6832384253414432  0.5207770854716505  0.3910569477344634
  0.7660005061699576  0.2098041458564098  0.5247208009157669
  0.8317927268116045  0.3161913476005055  0.4399860527993868
  0.4265904285248076  0.3689908461563977  0.8873620804946246
  0.3973903020886084  0.2459177418231537  0.8574598083010289
  0.3535951091667359  0.4573564764976830  0.0553231189822893
  0.2436683992762185  0.3380761118776173  0.1186790590470443
  0.5026112090282971  0.2931286021335384  0.0950591068801730
  0.5140910541536763  0.1553948081622391  0.1830698084591326
  0.4493416421536156  0.3408504195263194  0.0437821826455805
  0.7115489755379940  0.6210810053203643  0.7920415009674646
  0.5265999273035499  0.6883888136381076  0.7127110569068168
  0.4856313096414516  0.4946616317525199  0.6656416769035010
  0.3388409526154330  0.4561210572882038  0.7089400195644976
  0.6078769885338111  0.5648867491655934  0.7079809315961756
  0.5690197334155365  0.5720773111719668  0.7884109794510846
  0.6893827898042855  0.5478181350612253  0.7421492145569413
  0.5713674236727414  0.6607580711002953  0.9099475262361036
  0.5691265428371233  0.6629830926969296  0.7877611782505847
  0.2219929866644881  0.5205515490134739  0.0153183327729426
  0.3503706614004513  0.6389048157706076  0.0223301722615168
  0.3082478346820506  0.6983298954559013 -0.0272410354119981
  0.4429823514682369  0.6281478895691811  0.8116770794856287
  0.4084364948361383  0.6005159875473222 -0.0138058716142023
  0.1424827386502373  0.6463215750576976  0.8427686089089236
  0.0726748015221844  0.6785945014014195  0.0707740628911834
  0.0770722598004822  0.7842813354101391  0.8545175317416586
  0.1877280956350705  0.6562586209347241  0.1592554473657614
  0.1521152430402458  0.7207804782082153  0.9762943774115218
  0.1170836158064960  0.6036972725944096  0.0547098082502908
  0.1294008593440966  0.8997145201954735  0.8300153609596619
  0.1017139529347469  0.6099193423393708  0.7113007054933084
  0.0786469952436281  0.8279238723814105  0.9294038769896397
  0.5637078296074257  0.9530754063716790  0.8819915370024823
  0.6655179128803206  0.0193031255269986  0.7456779762098495
  0.7926129010463285 -0.0063956788824258  0.6671911256831434
  0.7215420185759596  0.9904313303738691  0.6208176737943962
  0.7477996156684555  1.0156673549981154  0.5455902392092655
  0.6807098374350724  0.9191754909760782  0.6228861594668149
  0.7247325360498437  0.8486017830684970  0.5987540450280132
  0.3527838803353623  0.4755403129566965  0.8326985045178681
  0.4276022426009560  0.1038911065190054  0.7637570149044699
  0.4911161348462099  0.1464419123032249  0.8120670436459293
  0.1835681397360543  0.1995023878769003  0.8434230133881241
  0.3153169360515298  0.2957049889033211  0.6172576133409691
  0.2973970958613376  0.4118800364263336  0.4421786501187132
  0.3401020785183205  0.1088722275787634  0.7410171783735199
  0.2191465569727757  0.3767474708164880  0.8499779894765973
  0.0289936486724123  0.1907687677182070  0.8775326554283096
  0.3386049752871113  0.5016286118595907  0.9142615137169330
  0.2638611364798301  0.4697838192310657  0.0722053218627140
  0.3194369214792329  0.6198352992799424  0.1063594706400317
  0.2413112320648247  0.6413284527616007  0.0970435667732640
  0.5055993389071063  0.7870922910632545  0.9339835625819153
  0.3236876677863952  0.4959256512743804  0.1990537955737345
  0.2294391758771193  0.5611526930584170  0.2837860297693493
  0.2510966839553970  0.7316341671561319  0.0881513734253682
  0.1311129165477107  0.7198809831602657  0.1197210232963719
  0.4677708766499187  0.8823319574706699  0.0489671056702154
  0.3931425018618344  0.9389269859917332  0.0630651660123499
  0.1452732780615867  0.5907817502746585  0.1929856514181913
  0.2107970300819835  0.7168225306267806  0.2157765083011602
  0.3168665884482542  0.7586958824891310  0.0426184488970341
  0.9790730846608534  0.6695866978712695  0.8576435570224783
  0.8872547250033422  0.5939339869368210  0.9044304050143641
  0.9861359725320573  0.6890445316553722  0.5934416542928076
  0.0774497647314201  0.7796335739969852  0.6240106880255668
  0.8957320348948992  0.6713304338620734  0.7577680511548809
  0.9119368511971490  0.7547392329275411  0.7548661799691758
  0.8823578144098548  0.7974378995021055  0.6859498132180616
  0.7282580168371497  0.3976257823516747  0.4510230202883287
  0.6330028303014773  0.2993757638156975  0.4962540960674995
  0.5694105974312130  0.3628692435622906  0.3183136687518907
  0.6630820016483994  0.5185463686042002  0.4779711452448735
  0.7288055323238795  0.4604655125791766  0.5082082770675155
  0.6217943309390214  0.4720238351540126  0.3642347117964043
  0.5901131938953705  0.4147361019200824  0.4299775128082265
  0.7511891103499546  0.8680980098249712  0.7723277772702024
  0.7758451454649107  0.7893629537447869  0.7959865830193115
  0.5623523833940148  0.9131290852403778  0.9633540605667263
  0.7756284989649765  0.9730967631120343  0.8783541832536755
  0.9797502589136736  0.9513408143999136 -0.0168253268606721
  0.8517154789060587  0.0032589440306177  0.9121581516145223
  0.7685958031526299  0.8425556468845170  0.9166943811268350
  0.5721072043304604  0.1332186404397951  0.7699109414056532
  0.7495254168607658  0.4520154805135831  0.8243721363638448
  0.8585185643318319  0.3726630325085844  0.8231202076972275
  0.8176319040131489  0.2890633859485801  0.8287662984521152
  0.7249270364814236  0.3819500602137220  0.6383226555109778
  0.8120658919315541  0.1277090625449987  0.9182945000096003
  0.8058481085586006  0.1336204416272679  0.7307125635049820
  0.9212402589871582  0.6380186096687442  0.6213882682911636
  0.7057960853265725  0.5951941045465329  0.6005254434787803
  0.7467554578909932  0.0437936050906594  0.8144297709581561
  0.6266227906389809  0.0814794742138945  0.9753586008736240
  0.4841409664795235  0.2281609758697953  0.8191784830372306
  0.7191313335344014  0.2352565821916885  0.9281609718150358
  0.7871693109363527  0.2670778751638768  0.0947262509857884
  0.7953821361486065  0.2767950838916809  0.9110273258884850
  0.7941130090950512  0.2061758589171762  0.9546337232914517
  0.6241331855519168  0.8639226485183891  0.4925307573415144
  0.4969233791182700  0.8659813507125753  0.5448214808880951
  0.6156383539876904  0.7488596393387532  0.5925329753451989
  0.5800082051582995  0.8066391972440913  0.6465596790621694
  0.4842530031797043  0.7224273554996623  0.5937406862482904
  0.6089890611776084  0.8099225259676149  0.7366378766320041
  0.4361570607703704  0.8059700772824108  0.6852485130260210
  0.2803370635559271  0.7611912408812311  0.6272853935802246
  0.1419109051945268  0.8974797918651639  0.7062371841022251
  0.6552127675855052  0.1480995696997610  0.0984433083501119
  0.5565910532232027  0.9733041354171160  0.0260871881641406
  0.5352852299744345  0.0221608885829916  0.1949778992670372
  0.6696967578748350  0.0438731552901992  0.9137728636409892
  0.7090571530838268  0.7689014642685141  0.2228183341083322
  0.5023208027575158  1.0280230538142470  0.9959041851313585
  0.6228390190935822  0.0704983301591909  0.1178746662297990
  0.4237446093934453  0.0644933700091892  0.5449590678635947
  0.7169209886492366  0.2252335784616896  0.4008910259948146
  0.5357724856072217  0.1284228593784915  0.5275518198251626
  0.6277737059559889  0.0357109247945176  0.3883231819325727
  0.4797576099711146 -0.0189631034657440  0.3035185880820732
  0.5756574202399408  0.1316207521950224  0.6012578481709301
  0.5395933999063668  1.0399351872009961  0.5037018988441744
  0.7995173011560215  0.2053646656247940  0.0398004057005426
  0.6629247605922716  0.0333847420082107  0.2605113294707674
  0.4864593514486381  0.0844798670405010  0.0644675750362629
  0.5645378143208967  0.1702201318332757  0.2552608586574282
  0.7814645004664059  0.0878332710903928  0.1720370533576841
  0.8086922487471894  0.0229335836926597  0.2227522331560138
  0.7043447780685156  0.9039923240887867  0.3067194674531470
  0.9027673335224620  0.4249353127257346  0.5886393950170538
  0.7483018697951034  0.5298943066564611  0.6156650547932261
  0.8192310732702496  0.5224140411845780  0.4361489047050230
  0.7010146317667172  0.4542390196429073  0.5876358968583028
  0.8903980355377530  0.2365047311664562  0.7968883193281570
  0.6165069028019723  0.4279529010588068  0.6862147954761129
  0.5141159415294366  0.3657579283819064  0.6547467614268625
  0.8341711005532642  0.3405855746082717  0.9573139793662616
  0.8466294116725149  0.4071143244257778  0.9011340223022750
  0.4954968816247984  0.3275887217985902  0.9198849978913813
  0.8208363409305676  0.3848380849030218  0.0310022875280309
  0.0047425866163815  0.3362887277273841  0.9114248434144862
  0.9124509511177901  0.2952196188225247  0.0590871207812922
  0.0190596218561307  0.3366431924199853  0.8301266144889443
  0.5342617289237468  0.2205213651687775  0.0546975001165531
  0.9118641274277753  0.4557951815054360  0.9336239091227145
  0.7628939018222206  0.5164530627576052  0.6944391900346655
  0.7683463704271649  0.4495839238533310  0.9038370670270217
  0.7449313958899714  0.6028319920012788  0.8697672816643820
  0.6633146718115749  0.4801349897684996  0.9776632708572194
  0.7246380603798358  0.5419094952637324  0.9901749315460987
  0.7276002182702773  0.6550111764672666  0.9360580439938965
  0.6234730240448816  0.5354269648222019  0.8496421158674825
  0.5080549284872078  0.7604374590505777  0.6673561535320822
  0.3076673086235252  0.8361848194604430  0.7725329074523813
  0.2060327042030094  0.7504629159114449  0.6750769085848306
  0.3614400606912368  0.7511798962309910  0.6516916023716901
  0.0612408262894382  0.8960409573015562  0.5099591286627010
  0.0700145692585828  0.8622490238011306  0.6067126471064817
  0.4629583321884104  0.7905183827304768  0.5498737028345710
  0.2219755737284561  0.9770325374704214  0.9411713945734091
  0.4013747468138044  0.8803201661583951  0.9182126755270476
  0.4810330207826363  0.8628384776671973  0.9645299403270786
  0.3299397770384079  0.9908919828907244  0.8592216881707707
  0.3941209360995401  0.7626017509124922  0.8466385593185646
  0.2590907787649601  0.9387930742553797  0.8685434087426707
  0.3974543802986251  0.7409655636970346  0.7270076971575760
  0.2102488007186711  0.8044848184356390  0.8750805492355521
  0.2569327044216007  0.8676240338114043  0.7105984922981932
  0.7268178785450187  0.1541912554666748  0.0560490699105153
  0.5491280419420508  0.0719676829865397  0.9369903731164496
  0.7330713951023206  0.3864837690988420  0.0389019274720188
  0.5384840534470079  0.0865010848243575  0.1320921820423323
  0.7306274992107628  0.3455356012079539  0.2327239136417368
  0.6508181724515879  0.2970255552767372  0.1147723118377053
  0.6188966715954025  0.0722823706924362  0.3177513696876624
  0.5050667343154011  0.3750456930768509 -0.0077824953451834
  0.6342026158757199  0.3515030163725205  0.9491443230248340
  0.7743857958576371  0.5560737171823332  0.0624348924909605
  0.6771950339596945  0.5712634807903390  0.1487237154814071
  0.5873318992907787  0.3774159368078309  0.0209182160901812
  0.6232565878751433  0.4496647466015504  0.0549282631912586
  0.5438805947238220  0.6130797299213371  0.1461942455374580
  0.1516705281001038  0.3592961788957300  0.6068107990662404
  0.1621986236089367  0.3898069731908332  0.5229044721479837
  0.2963762148463653  0.3466516761945074  0.8148827549107341
  0.0624775084451612  0.3069580400344254  0.5124261856180741
  0.1150699483426637  0.1381906790603447  0.5635319855820105
  0.9433700468723266  0.3692048994247319  0.7930800246081571
  0.8728418490226213  0.1791689166433491  0.7384659448485058
  0.6306470762084643  0.7270132316529356  0.8747780228183005
  0.3405340176815012  0.7526083398159430  0.9128330212969932
  0.4941504532824870  0.9562035757403597  0.1579781159738233
  0.8883985831122324  0.6557710083749706  0.8464096291415403
  0.5750402257558793  0.6876829629936879 -0.0060298909708107
  0.4809368839909105  0.7498609332123700  0.8549534653419831
  0.6469243420021967  0.6891689806491382  0.7992601294234423